Zn47Ge49P96                             
   1.00000000000000     
    16.4039999999999999    0.0000000000000000    0.0000000000000000
     0.0000000000000000   15.3313769999999998    0.0000000000000000
     0.0000000000000000    0.2701040000000000   15.3289980000000003
   Zn   Ge   P 
    47    49    96
Direct
  0.9982936452991567  0.9994919488204985  0.9973542093736114
  0.1667457942418906  0.6238867706073279  0.3752649940658372
  0.1662973948811057  0.8746854297515299  0.3723054629389324
  0.9999993338986997  0.4995506420888205  0.7504466560351446
  0.0001141242855240  0.5002783150762298  0.4995101729128493
  0.1669954927670148  0.1248403602099302  0.8752690448191771
  0.1667649767085351  0.3752445206161354  0.8752003683043412
  0.9997351742983227  0.2497271623688206  0.5009527985189735
  0.0016989697481975  0.2526355607022026  0.2505096122848087
  0.1663714630882467  0.8751725916042119  0.6242829008932489
  0.1660591535792832  0.1250375424920307  0.6246071288241879
  0.0002619777311921  0.7490472638361254  0.0002688195221054
  0.9998825733716501  0.7504888362069764  0.7497137125387425
  0.1667942741707620  0.3730859160813154  0.1254946911832420
  0.1663665638853118  0.6233590129500186  0.1245046627729920
  0.3341120960940245  0.9988943906479619  0.2501937035539257
  0.3342182720236408  0.9994415275199913  0.9989667849287898
  0.5002785139865296  0.6243625671085837  0.3752096533921829
  0.4999986766693354  0.8750795474894133  0.3749168658759956
  0.3325623746430963  0.5001362276379666  0.7507518856352817
  0.3331662662357786  0.5003681131078110  0.4999561699957482
  0.5001984523761891  0.1246539162444265  0.8749643915190077
  0.4999983287135521  0.3760005193446005  0.8739952950201229
  0.3329412888547552  0.2495505587485951  0.5003296365011067
  0.3333909462980387  0.2498997059157162  0.2495566033849954
  0.4997204158249460  0.8747831644323298  0.6256353174500404
  0.4994243457832752  0.1255182637412418  0.6249989109536642
  0.3364189453807640  0.7458567783239616  0.9984296381014417
  0.3332580406677152  0.7504987020236698  0.7493141376500176
  0.4997993102166305  0.3750334184198110  0.1253417559801946
  0.5005724123044430  0.6249977874370387  0.1244757743678591
  0.6658849722129005  0.9998034961901325  0.2511001289993331
  0.6666060307481203  0.0004407230970642  0.0000970333839234
  0.8336262769519109  0.6257130338778722  0.3748256445664779
  0.8336997765335781  0.8776915161585563  0.3753076658952139
  0.6674365920522476  0.4992436394285846  0.7498578680344679
  0.6667391229307142  0.5006834370606299  0.4994970553205249
  0.8332025214575083  0.1245044482123774  0.8769105582410432
  0.8332328257218578  0.3747979145522606  0.8747519910353247
  0.6635772632973485  0.2515670244072652  0.5041394504435175
  0.6657788167221383  0.2510323014016578  0.2505552754887432
  0.8332509288900738  0.8747322308845540  0.6261068190200021
  0.8336287906830080  0.1254910829300258  0.6266397876380765
  0.6670566812170122  0.7496688981558464  0.0004464157262447
  0.6668315876081365  0.7500387868679894  0.7496280897232097
  0.8330031044223460  0.3747284928345351  0.1251584128635699
  0.8339404506236932  0.6253910523326738  0.1249582684089745
  0.1723393810866867  0.8708293850937281  0.1203406633177835
  0.1687713675653200  0.1234516651837367  0.1235354735665837
  0.9999985411007017  0.7502209293824720  0.4997701433838131
  0.0015867093729085  0.7487570673991684  0.2498997628174848
  0.1664779424753036  0.3752438431764276  0.6251178779428059
  0.1664303338732367  0.6248376941169838  0.6251637858863361
  0.9999990045101868  0.2497658768777313  0.0002329581510594
  0.9998306241867212  0.2495858997455258  0.7509580277779193
  0.1667681987704484  0.1255588840608439  0.3741109165960737
  0.1668240659533282  0.3750740855453145  0.3756095018083982
  0.0013680631065469  0.0002421744598990  0.7509099968181445
  0.9984087988986445  0.0000931669857138  0.5012396529912593
  0.1664598413211991  0.6252682254531408  0.8749374602205577
  0.1676559772564588  0.8742971599414702  0.8751563989119262
  0.9986299923750508  0.4990866073514297  0.2497560683845066
  0.0001670861867424  0.4990396674199786  0.0004125903061905
  0.5001293007846783  0.8750006282469869  0.1247655049985426
  0.4999988184234212  0.1247763101510913  0.1252224909447932
  0.3330257454485874  0.7505099543578240  0.4993205212645222
  0.3339456445617017  0.7487582108377921  0.2501317990419381
  0.4987760507954562  0.3761736804729736  0.6254243823292143
  0.4999981099987707  0.6249060004914639  0.6250863963431215
  0.3343433518701602  0.2500540150070023  0.9990912706195303
  0.3332046756867797  0.2497247059727243  0.7502453320118718
  0.4998683933410675  0.1252327295365134  0.3749967366779998
  0.4995849379066684  0.3748837227079278  0.3753883755235279
  0.3331290122492305  0.0002306436421833  0.7494679575662175
  0.3329322728412194  0.9995796506532173  0.4999811135641679
  0.5012203149671137  0.6245695812922918  0.8738170675923982
  0.5004120341360334  0.8746083210485338  0.8751151688456957
  0.3332293131809934  0.4999115832088492  0.2496831100329260
  0.3332898831599778  0.4991328359475702  0.0001665602030840
  0.8332288804680203  0.8758882802670840  0.1244353270293601
  0.8312243285177772  0.1264619225976134  0.1265448887158911
  0.6669727447040543  0.7506752025345165  0.4994860495486719
  0.6670660847856027  0.7500177542873843  0.2504169865269930
  0.8335388909572501  0.3750573175302421  0.6247278959438916
  0.8335667018513675  0.6248326028333224  0.6251590995769405
  0.6656544834415996  0.2509071564701841  0.9999428633998448
  0.6667057164449801  0.2498298632880633  0.7508611777724212
  0.8276572481609890  0.1296532621799287  0.3791679580086580
  0.8323419312586466  0.3748404651482815  0.3757010475557649
  0.6667656734892518  0.0003144871305025  0.7500860993795584
  0.6660502562470114  0.9998658911682128  0.5012385462231350
  0.8335201864486308  0.6248790543032214  0.8747509958542921
  0.8331711220578057  0.8743910416889378  0.8749201406437308
  0.6668699759932721  0.5005290967390081  0.2497653157484621
  0.6667935062678438  0.4997494455400968  0.0002730995071190
  0.0000032075280103  0.0068271314172890  0.2431647271756816
  0.0823060871140342  0.0012005242126278  0.3776805871429048
  0.2492769826520416  0.1238218910376787  0.2496472897186806
  0.0921411557624410  0.9951872577826109  0.1139338431239096
  0.2509055324250653  0.8728573827653889  0.2473792213154837
  0.2498647348247403  0.6263103346247902  0.5012498085120640
  0.0826952551587326  0.7495924083005150  0.3751587204587707
  0.2499822897191066  0.8754313210938562  0.4984490910562442
  0.0832372756438318  0.7489644379097484  0.6236543247365134
  0.0833484458781371  0.5010927557108573  0.8763781742056338
  0.2485404309155328  0.6253924815998815  0.7501484822187550
  0.0841535489125107  0.5000227731079576  0.6250605743327640
  0.2498166705505156  0.3736240862759033  0.7490201454983207
  0.2513481682112086  0.1257720710092514  0.0001743746715519
  0.0824559481787759  0.2499191645366068  0.8755650359573792
  0.2513429211926592  0.3741405014601611  0.0002766083814123
  0.0836924363084108  0.2463830238804690  0.1240912728027865
  0.0831143582751466  0.2512673721655290  0.6268057804847018
  0.2489457500537000  0.3749060608412407  0.5004186119238199
  0.0845917860627310  0.2499881221709472  0.3759085145762384
  0.2494167868412731  0.1234458496248294  0.4984554283542906
  0.2497498776215821  0.8764118883852348  0.7502718253254059
  0.0817530452643638  0.9999691682041387  0.6248476655695896
  0.2507689723778768  0.1249882046471313  0.7496462442118954
  0.0845013913400834  0.9987740065461779  0.8754166990713372
  0.0842961742890722  0.7504346717097192  0.1255176634632775
  0.2544022502173817  0.8711653644496380  0.9962687443647340
  0.0843860207306690  0.7501255513896439  0.8750128184477788
  0.2500804624761912  0.6229129161821874  0.9987091380105184
  0.2500014170611209  0.3757401568824790  0.2515157577905569
  0.0821228756098407  0.4980952826085172  0.1253089485423544
  0.2508498343765453  0.6245288446425050  0.2498000063560895
  0.0830758158120801  0.4984359987213693  0.3734181454872854
  0.4167293592943082  0.0011408804877320  0.3764158881402864
  0.5821422341286961  0.1252292181457761  0.2502027760886776
  0.4178555410994846  0.9997941994375026  0.1247679215164013
  0.5832686972582550  0.8735805325757653  0.2488551420109744
  0.5835310432270120  0.6266813894858174  0.5010742204035452
  0.4159637012823154  0.7495824610063124  0.3749545054982590
  0.5840338206209594  0.8750416585682217  0.5004151038252971
  0.4164675123590342  0.7489189699054108  0.6233159522188032
  0.4165674221840732  0.5014916132681435  0.8760776960681440
  0.5832928430340303  0.6242675851577815  0.7491565539470812
  0.4167038269456782  0.5008369845519027  0.6257280668480405
  0.5834287971481373  0.3739193754536672  0.7485050856242665
  0.5831249839187436  0.1262500299086398  0.0011835707519126
  0.4164544454952903  0.2502802436085929  0.8742971447279260
  0.5835428563142671  0.3757014651741386  0.9997155897948673
  0.4168726113418160  0.2488139852436362  0.1237477263347699
  0.4162143800358677  0.2514986849030265  0.6262979730896987
  0.5807628933372584  0.3764576836918252  0.5009699808448715
  0.4174018615164385  0.2498003153638138  0.3751406131362387
  0.5827503178336002  0.1238429360637383  0.4992307868964900
  0.5836695355875108  0.8762290667788548  0.7512269596712713
  0.4153063530066134  0.0001045408077687  0.6247645531414889
  0.5844569151062728  0.1250010724947757  0.7498405068745697
  0.4171547263460482  0.9986690857850959  0.8729503314108626
  0.4172463096663677  0.7507663574556531  0.1261543155177378
  0.5825959656335371  0.8748564439637434  0.0001982719550497
  0.4192338938749174  0.7490264901299994  0.8735399947081888
  0.5837824206732449  0.6237009309110135  0.9984965075008532
  0.5828419304629335  0.3770475258604975  0.2513266275873960
  0.4155382784560828  0.5001563896320036  0.1249974057284007
  0.5846932870171528  0.6252317995954755  0.2498898142077479
  0.4163269427953367  0.4987724728263174  0.3737657255835884
  0.7490896815431825  0.0026165643243417  0.3771400991801315
  0.9078576860486791  0.1360493293783946  0.2548096942725167
  0.7507200443346207  0.0003489034079891  0.1261736422025308
  0.9176926481948016  0.8723165831438351  0.2487928852607553
  0.9167614791251779  0.6263364573512362  0.5010329076299485
  0.7500163985154344  0.7515458788848193  0.3745617886965817
  0.9173014857512385  0.8748314832537289  0.5004009025924390
  0.7501322065693614  0.7487460341254035  0.6236854001114551
  0.7501798981528083  0.5009771937945544  0.8763731456863653
  0.9158432340043063  0.6249367588943215  0.7499750975880488
  0.7514585270152239  0.4998467048966404  0.6246030322613194
  0.9166507606578165  0.3736189199127864  0.7489053782233768
  0.9163030720431777  0.1259093184115230  0.0036132191451017
  0.7486532280957690  0.2497219428200594  0.8758550578360982
  0.9175421254073299  0.3744341305273835  0.0000783583045774
  0.7486498147921807  0.2498231380143778  0.1242243811480961
  0.7499153038778701  0.2512879440388005  0.6270844661710981
  0.9156105970252000  0.3749814305442385  0.4998724389450686
  0.7455955559619412  0.2537287229551310  0.3788312868566734
  0.9157008373041435  0.1244758338423892  0.4995630592161007
  0.9169201726719081  0.8765808076737898  0.7515579594632058
  0.7491450828383037  0.0001957757361950  0.6254686955467506
  0.9178752594025994  0.1246882287148026  0.7519027306725050
  0.7499947313226443  0.9984829462936915  0.8742553329561389
  0.7505821316161629  0.7515406009284291  0.1265492708908198
  0.9154047740534281  0.8740904491246795  0.0000066415316482
  0.7510515840090406  0.7495800445711183  0.8750905988748698
  0.9168838141340245  0.6231937290096354  0.9987288069773044
  0.9154970024552895  0.3745785101887975  0.2512247441326991
  0.7492298343879256  0.5003510673904970  0.1250102528061205
  0.9182437464035260  0.6251479066949770  0.2500268835706549
  0.7502488073125448  0.4997243775895299  0.3735854743442601
 
  0.00000000E+00  0.00000000E+00  0.00000000E+00
  0.00000000E+00  0.00000000E+00  0.00000000E+00
  0.00000000E+00  0.00000000E+00  0.00000000E+00
  0.00000000E+00  0.00000000E+00  0.00000000E+00
  0.00000000E+00  0.00000000E+00  0.00000000E+00
  0.00000000E+00  0.00000000E+00  0.00000000E+00
  0.00000000E+00  0.00000000E+00  0.00000000E+00
  0.00000000E+00  0.00000000E+00  0.00000000E+00
  0.00000000E+00  0.00000000E+00  0.00000000E+00
  0.00000000E+00  0.00000000E+00  0.00000000E+00
  0.00000000E+00  0.00000000E+00  0.00000000E+00
  0.00000000E+00  0.00000000E+00  0.00000000E+00
  0.00000000E+00  0.00000000E+00  0.00000000E+00
  0.00000000E+00  0.00000000E+00  0.00000000E+00
  0.00000000E+00  0.00000000E+00  0.00000000E+00
  0.00000000E+00  0.00000000E+00  0.00000000E+00
  0.00000000E+00  0.00000000E+00  0.00000000E+00
  0.00000000E+00  0.00000000E+00  0.00000000E+00
  0.00000000E+00  0.00000000E+00  0.00000000E+00
  0.00000000E+00  0.00000000E+00  0.00000000E+00
  0.00000000E+00  0.00000000E+00  0.00000000E+00
  0.00000000E+00  0.00000000E+00  0.00000000E+00
  0.00000000E+00  0.00000000E+00  0.00000000E+00
  0.00000000E+00  0.00000000E+00  0.00000000E+00
  0.00000000E+00  0.00000000E+00  0.00000000E+00
  0.00000000E+00  0.00000000E+00  0.00000000E+00
  0.00000000E+00  0.00000000E+00  0.00000000E+00
  0.00000000E+00  0.00000000E+00  0.00000000E+00
  0.00000000E+00  0.00000000E+00  0.00000000E+00
  0.00000000E+00  0.00000000E+00  0.00000000E+00
  0.00000000E+00  0.00000000E+00  0.00000000E+00
  0.00000000E+00  0.00000000E+00  0.00000000E+00
  0.00000000E+00  0.00000000E+00  0.00000000E+00
  0.00000000E+00  0.00000000E+00  0.00000000E+00
  0.00000000E+00  0.00000000E+00  0.00000000E+00
  0.00000000E+00  0.00000000E+00  0.00000000E+00
  0.00000000E+00  0.00000000E+00  0.00000000E+00
  0.00000000E+00  0.00000000E+00  0.00000000E+00
  0.00000000E+00  0.00000000E+00  0.00000000E+00
  0.00000000E+00  0.00000000E+00  0.00000000E+00
  0.00000000E+00  0.00000000E+00  0.00000000E+00
  0.00000000E+00  0.00000000E+00  0.00000000E+00
  0.00000000E+00  0.00000000E+00  0.00000000E+00
  0.00000000E+00  0.00000000E+00  0.00000000E+00
  0.00000000E+00  0.00000000E+00  0.00000000E+00
  0.00000000E+00  0.00000000E+00  0.00000000E+00
  0.00000000E+00  0.00000000E+00  0.00000000E+00
  0.00000000E+00  0.00000000E+00  0.00000000E+00
  0.00000000E+00  0.00000000E+00  0.00000000E+00
  0.00000000E+00  0.00000000E+00  0.00000000E+00
  0.00000000E+00  0.00000000E+00  0.00000000E+00
  0.00000000E+00  0.00000000E+00  0.00000000E+00
  0.00000000E+00  0.00000000E+00  0.00000000E+00
  0.00000000E+00  0.00000000E+00  0.00000000E+00
  0.00000000E+00  0.00000000E+00  0.00000000E+00
  0.00000000E+00  0.00000000E+00  0.00000000E+00
  0.00000000E+00  0.00000000E+00  0.00000000E+00
  0.00000000E+00  0.00000000E+00  0.00000000E+00
  0.00000000E+00  0.00000000E+00  0.00000000E+00
  0.00000000E+00  0.00000000E+00  0.00000000E+00
  0.00000000E+00  0.00000000E+00  0.00000000E+00
  0.00000000E+00  0.00000000E+00  0.00000000E+00
  0.00000000E+00  0.00000000E+00  0.00000000E+00
  0.00000000E+00  0.00000000E+00  0.00000000E+00
  0.00000000E+00  0.00000000E+00  0.00000000E+00
  0.00000000E+00  0.00000000E+00  0.00000000E+00
  0.00000000E+00  0.00000000E+00  0.00000000E+00
  0.00000000E+00  0.00000000E+00  0.00000000E+00
  0.00000000E+00  0.00000000E+00  0.00000000E+00
  0.00000000E+00  0.00000000E+00  0.00000000E+00
  0.00000000E+00  0.00000000E+00  0.00000000E+00
  0.00000000E+00  0.00000000E+00  0.00000000E+00
  0.00000000E+00  0.00000000E+00  0.00000000E+00
  0.00000000E+00  0.00000000E+00  0.00000000E+00
  0.00000000E+00  0.00000000E+00  0.00000000E+00
  0.00000000E+00  0.00000000E+00  0.00000000E+00
  0.00000000E+00  0.00000000E+00  0.00000000E+00
  0.00000000E+00  0.00000000E+00  0.00000000E+00
  0.00000000E+00  0.00000000E+00  0.00000000E+00
  0.00000000E+00  0.00000000E+00  0.00000000E+00
  0.00000000E+00  0.00000000E+00  0.00000000E+00
  0.00000000E+00  0.00000000E+00  0.00000000E+00
  0.00000000E+00  0.00000000E+00  0.00000000E+00
  0.00000000E+00  0.00000000E+00  0.00000000E+00
  0.00000000E+00  0.00000000E+00  0.00000000E+00
  0.00000000E+00  0.00000000E+00  0.00000000E+00
  0.00000000E+00  0.00000000E+00  0.00000000E+00
  0.00000000E+00  0.00000000E+00  0.00000000E+00
  0.00000000E+00  0.00000000E+00  0.00000000E+00
  0.00000000E+00  0.00000000E+00  0.00000000E+00
  0.00000000E+00  0.00000000E+00  0.00000000E+00
  0.00000000E+00  0.00000000E+00  0.00000000E+00
  0.00000000E+00  0.00000000E+00  0.00000000E+00
  0.00000000E+00  0.00000000E+00  0.00000000E+00
  0.00000000E+00  0.00000000E+00  0.00000000E+00
  0.00000000E+00  0.00000000E+00  0.00000000E+00
  0.00000000E+00  0.00000000E+00  0.00000000E+00
  0.00000000E+00  0.00000000E+00  0.00000000E+00
  0.00000000E+00  0.00000000E+00  0.00000000E+00
  0.00000000E+00  0.00000000E+00  0.00000000E+00
  0.00000000E+00  0.00000000E+00  0.00000000E+00
  0.00000000E+00  0.00000000E+00  0.00000000E+00
  0.00000000E+00  0.00000000E+00  0.00000000E+00
  0.00000000E+00  0.00000000E+00  0.00000000E+00
  0.00000000E+00  0.00000000E+00  0.00000000E+00
  0.00000000E+00  0.00000000E+00  0.00000000E+00
  0.00000000E+00  0.00000000E+00  0.00000000E+00
  0.00000000E+00  0.00000000E+00  0.00000000E+00
  0.00000000E+00  0.00000000E+00  0.00000000E+00
  0.00000000E+00  0.00000000E+00  0.00000000E+00
  0.00000000E+00  0.00000000E+00  0.00000000E+00
  0.00000000E+00  0.00000000E+00  0.00000000E+00
  0.00000000E+00  0.00000000E+00  0.00000000E+00
  0.00000000E+00  0.00000000E+00  0.00000000E+00
  0.00000000E+00  0.00000000E+00  0.00000000E+00
  0.00000000E+00  0.00000000E+00  0.00000000E+00
  0.00000000E+00  0.00000000E+00  0.00000000E+00
  0.00000000E+00  0.00000000E+00  0.00000000E+00
  0.00000000E+00  0.00000000E+00  0.00000000E+00
  0.00000000E+00  0.00000000E+00  0.00000000E+00
  0.00000000E+00  0.00000000E+00  0.00000000E+00
  0.00000000E+00  0.00000000E+00  0.00000000E+00
  0.00000000E+00  0.00000000E+00  0.00000000E+00
  0.00000000E+00  0.00000000E+00  0.00000000E+00
  0.00000000E+00  0.00000000E+00  0.00000000E+00
  0.00000000E+00  0.00000000E+00  0.00000000E+00
  0.00000000E+00  0.00000000E+00  0.00000000E+00
  0.00000000E+00  0.00000000E+00  0.00000000E+00
  0.00000000E+00  0.00000000E+00  0.00000000E+00
  0.00000000E+00  0.00000000E+00  0.00000000E+00
  0.00000000E+00  0.00000000E+00  0.00000000E+00
  0.00000000E+00  0.00000000E+00  0.00000000E+00
  0.00000000E+00  0.00000000E+00  0.00000000E+00
  0.00000000E+00  0.00000000E+00  0.00000000E+00
  0.00000000E+00  0.00000000E+00  0.00000000E+00
  0.00000000E+00  0.00000000E+00  0.00000000E+00
  0.00000000E+00  0.00000000E+00  0.00000000E+00
  0.00000000E+00  0.00000000E+00  0.00000000E+00
  0.00000000E+00  0.00000000E+00  0.00000000E+00
  0.00000000E+00  0.00000000E+00  0.00000000E+00
  0.00000000E+00  0.00000000E+00  0.00000000E+00
  0.00000000E+00  0.00000000E+00  0.00000000E+00
  0.00000000E+00  0.00000000E+00  0.00000000E+00
  0.00000000E+00  0.00000000E+00  0.00000000E+00
  0.00000000E+00  0.00000000E+00  0.00000000E+00
  0.00000000E+00  0.00000000E+00  0.00000000E+00
  0.00000000E+00  0.00000000E+00  0.00000000E+00
  0.00000000E+00  0.00000000E+00  0.00000000E+00
  0.00000000E+00  0.00000000E+00  0.00000000E+00
  0.00000000E+00  0.00000000E+00  0.00000000E+00
  0.00000000E+00  0.00000000E+00  0.00000000E+00
  0.00000000E+00  0.00000000E+00  0.00000000E+00
  0.00000000E+00  0.00000000E+00  0.00000000E+00
  0.00000000E+00  0.00000000E+00  0.00000000E+00
  0.00000000E+00  0.00000000E+00  0.00000000E+00
  0.00000000E+00  0.00000000E+00  0.00000000E+00
  0.00000000E+00  0.00000000E+00  0.00000000E+00
  0.00000000E+00  0.00000000E+00  0.00000000E+00
  0.00000000E+00  0.00000000E+00  0.00000000E+00
  0.00000000E+00  0.00000000E+00  0.00000000E+00
  0.00000000E+00  0.00000000E+00  0.00000000E+00
  0.00000000E+00  0.00000000E+00  0.00000000E+00
  0.00000000E+00  0.00000000E+00  0.00000000E+00
  0.00000000E+00  0.00000000E+00  0.00000000E+00
  0.00000000E+00  0.00000000E+00  0.00000000E+00
  0.00000000E+00  0.00000000E+00  0.00000000E+00
  0.00000000E+00  0.00000000E+00  0.00000000E+00
  0.00000000E+00  0.00000000E+00  0.00000000E+00
  0.00000000E+00  0.00000000E+00  0.00000000E+00
  0.00000000E+00  0.00000000E+00  0.00000000E+00
  0.00000000E+00  0.00000000E+00  0.00000000E+00
  0.00000000E+00  0.00000000E+00  0.00000000E+00
  0.00000000E+00  0.00000000E+00  0.00000000E+00
  0.00000000E+00  0.00000000E+00  0.00000000E+00
  0.00000000E+00  0.00000000E+00  0.00000000E+00
  0.00000000E+00  0.00000000E+00  0.00000000E+00
  0.00000000E+00  0.00000000E+00  0.00000000E+00
  0.00000000E+00  0.00000000E+00  0.00000000E+00
  0.00000000E+00  0.00000000E+00  0.00000000E+00
  0.00000000E+00  0.00000000E+00  0.00000000E+00
  0.00000000E+00  0.00000000E+00  0.00000000E+00
  0.00000000E+00  0.00000000E+00  0.00000000E+00
  0.00000000E+00  0.00000000E+00  0.00000000E+00
  0.00000000E+00  0.00000000E+00  0.00000000E+00
  0.00000000E+00  0.00000000E+00  0.00000000E+00
  0.00000000E+00  0.00000000E+00  0.00000000E+00
  0.00000000E+00  0.00000000E+00  0.00000000E+00
  0.00000000E+00  0.00000000E+00  0.00000000E+00
  0.00000000E+00  0.00000000E+00  0.00000000E+00
  0.00000000E+00  0.00000000E+00  0.00000000E+00
  0.00000000E+00  0.00000000E+00  0.00000000E+00
  0.00000000E+00  0.00000000E+00  0.00000000E+00
