NELM = 200
EDIFF = 1E-5
EDIFFG = -0.01
ISMEAR = 0
SIGMA = 0.05
GGA = PE
IALGO = 38
LORBIT = 10
PREC = Accurate
ICORELEVEL = 1
LVHAR = .TRUE.
ISPIN = 2
ENCUT = 373
NPAR = 16
ICHARG = 1
LHFCALC = .TRUE.
HFSCREEN = 0.2
ALGO = Damped
TIME = 0.4
PRECFOCK = Fast
AEXX = 0.27
NELECT = 1731
