Zn47Ge49P96                             
   1.00000000000000     
    16.4039999999999999    0.0000000000000000    0.0000000000000000
     0.0000000000000000   15.3313769999999998    0.0000000000000000
     0.0000000000000000    0.2701040000000000   15.3289980000000003
   Zn   Ge   P 
    47    49    96
Direct
  0.9982936452991585  0.9994919488204979  0.9973542093736109
  0.1667457942418911  0.6238867706073246  0.3752649940658364
  0.1662973948811035  0.8746854297515313  0.3723054629389336
  0.9999993338987011  0.4995506420888229  0.7504466560351475
  0.0001141242855223  0.5002783150762269  0.4995101729128507
  0.1669954927670156  0.1248403602099323  0.8752690448191767
  0.1667649767085325  0.3752445206161346  0.8752003683043423
  0.9997351742983213  0.2497271623688195  0.5009527985189736
  0.0016989697481977  0.2526355607022040  0.2505096122848078
  0.1663714630882435  0.8751725916042120  0.6242829008932494
  0.1660591535792825  0.1250375424920303  0.6246071288241870
  0.0002619777311907  0.7490472638361241  0.0002688195221065
  0.9998825733716481  0.7504888362069785  0.7497137125387410
  0.1667942741707622  0.3730859160813174  0.1254946911832391
  0.1663665638853113  0.6233590129500158  0.1245046627729949
  0.3341120960940223  0.9988943906479606  0.2501937035539236
  0.3342182720236440  0.9994415275199902  0.9989667849287903
  0.5002785139865279  0.6243625671085855  0.3752096533921820
  0.4999986766693383  0.8750795474894152  0.3749168658759926
  0.3325623746430987  0.5001362276379682  0.7507518856352797
  0.3331662662357751  0.5003681131078084  0.4999561699957489
  0.5001984523761863  0.1246539162444292  0.8749643915190097
  0.4999983287135503  0.3760005193445976  0.8739952950201204
  0.3329412888547552  0.2495505587485954  0.5003296365011077
  0.3333909462980376  0.2498997059157151  0.2495566033849939
  0.4997204158249455  0.8747831644323333  0.6256353174500403
  0.4994243457832732  0.1255182637412402  0.6249989109536629
  0.3364189453807611  0.7458567783239591  0.9984296381014395
  0.3332580406677151  0.7504987020236672  0.7493141376500146
  0.4997993102166315  0.3750334184198118  0.1253417559801930
  0.5005724123044396  0.6249977874370352  0.1244757743678626
  0.6658849722128997  0.9998034961901291  0.2511001289993300
  0.6666060307481227  0.0004407230970627  0.0000970333839202
  0.8336262769519105  0.6257130338778741  0.3748256445664799
  0.8336997765335791  0.8776915161585574  0.3753076658952173
  0.6674365920522494  0.4992436394285881  0.7498578680344644
  0.6667391229307125  0.5006834370606327  0.4994970553205281
  0.8332025214575074  0.1245044482123758  0.8769105582410418
  0.8332328257218612  0.3747979145522575  0.8747519910353224
  0.6635772632973495  0.2515670244072639  0.5041394504435177
  0.6657788167221365  0.2510323014016583  0.2505552754887448
  0.8332509288900727  0.8747322308845564  0.6261068190200032
  0.8336287906830099  0.1254910829300248  0.6266397876380738
  0.6670566812170150  0.7496688981558493  0.0004464157262420
  0.6668315876081345  0.7500387868679882  0.7496280897232114
  0.8330031044223488  0.3747284928345385  0.1251584128635686
  0.8339404506236897  0.6253910523326738  0.1249582684089743
  0.1723393810866896  0.8708293850937303  0.1203406633177852
  0.1687713675653201  0.1234516651837398  0.1235354735665839
  0.9999985411007043  0.7502209293824703  0.4997701433838111
  0.0015867093729075  0.7487570673991668  0.2498997628174829
  0.1664779424753004  0.3752438431764304  0.6251178779428039
  0.1664303338732359  0.6248376941169850  0.6251637858863379
  0.9999990045101901  0.2497658768777300  0.0002329581510580
  0.9998306241867225  0.2495858997455291  0.7509580277779169
  0.1667681987704467  0.1255588840608449  0.3741109165960718
  0.1668240659533297  0.3750740855453170  0.3756095018084011
  0.0013680631065496  0.0002421744598975  0.7509099968181453
  0.9984087988986414  0.0000931669857145  0.5012396529912587
  0.1664598413211964  0.6252682254531378  0.8749374602205611
  0.1676559772564573  0.8742971599414727  0.8751563989119239
  0.9986299923750509  0.4990866073514331  0.2497560683845096
  0.0001670861867427  0.4990396674199822  0.0004125903061887
  0.5001293007846801  0.8750006282469871  0.1247655049985450
  0.4999988184234199  0.1247763101510901  0.1252224909447936
  0.3330257454485857  0.7505099543578225  0.4993205212645251
  0.3339456445617047  0.7487582108377933  0.2501317990419401
  0.4987760507954597  0.3761736804729739  0.6254243823292159
  0.4999981099987675  0.6249060004914638  0.6250863963431187
  0.3343433518701617  0.2500540150069994  0.9990912706195323
  0.3332046756867781  0.2497247059727211  0.7502453320118699
  0.4998683933410695  0.1252327295365151  0.3749967366779987
  0.4995849379066660  0.3748837227079259  0.3753883755235292
  0.3331290122492319  0.0002306436421852  0.7494679575662201
  0.3329322728412193  0.9995796506532181  0.4999811135641704
  0.5012203149671172  0.6245695812922882  0.8738170675923965
  0.5004120341360347  0.8746083210485310  0.8751151688456936
  0.3332293131809921  0.4999115832088503  0.2496831100329247
  0.3332898831599768  0.4991328359475706  0.0001665602030863
  0.8332288804680226  0.8758882802670847  0.1244353270293600
  0.8312243285177757  0.1264619225976134  0.1265448887158932
  0.6669727447040549  0.7506752025345143  0.4994860495486754
  0.6670660847856045  0.7500177542873814  0.2504169865269935
  0.8335388909572483  0.3750573175302438  0.6247278959438911
  0.8335667018513706  0.6248326028333190  0.6251590995769395
  0.6656544834416012  0.2509071564701829 -0.0000571366001543
  0.6667057164449824  0.2498298632880638  0.7508611777724210
  0.8276572481609881  0.1296532621799257  0.3791679580086614
  0.8323419312586440  0.3748404651482840  0.3757010475557624
  0.6667656734892495  0.0003144871305032  0.7500860993795557
  0.6660502562470130 -0.0001341088317898  0.5012385462231339
  0.8335201864486308  0.6248790543032202  0.8747509958542944
  0.8331711220578044  0.8743910416889400  0.8749201406437336
  0.6668699759932700  0.5005290967390080  0.2497653157484596
  0.6667935062678461  0.4997494455400936  0.0002730995071194
  0.0000032075280119  0.0068271314172872  0.2431647271756784
  0.0823060871140362  0.0012005242126295  0.3776805871429025
  0.2492769826520443  0.1238218910376794  0.2496472897186773
  0.0921411557624394  0.9951872577826127  0.1139338431239129
  0.2509055324250644  0.8728573827653910  0.2473792213154849
  0.2498647348247433  0.6263103346247936  0.5012498085120651
  0.0826952551587324  0.7495924083005180  0.3751587204587695
  0.2499822897191054  0.8754313210938592  0.4984490910562423
  0.0832372756438349  0.7489644379097462  0.6236543247365103
  0.0833484458781347  0.5010927557108580  0.8763781742056356
  0.2485404309155308  0.6253924815998785  0.7501484822187550
  0.0841535489125106  0.5000227731079541  0.6250605743327665
  0.2498166705505121  0.3736240862759002  0.7490201454983180
  0.2513481682112097  0.1257720710092485  0.0001743746715508
  0.0824559481787735  0.2499191645366048  0.8755650359573813
  0.2513429211926564  0.3741405014601623  0.0002766083814147
  0.0836924363084105  0.2463830238804692  0.1240912728027887
  0.0831143582751446  0.2512673721655286  0.6268057804847005
  0.2489457500537010  0.3749060608412382  0.5004186119238166
  0.0845917860627292  0.2499881221709464  0.3759085145762378
  0.2494167868412704  0.1234458496248283  0.4984554283542918
  0.2497498776215817  0.8764118883852323  0.7502718253254075
  0.0817530452643663  0.9999691682041402  0.6248476655695911
  0.2507689723778795  0.1249882046471291  0.7496462442118931
  0.0845013913400845  0.9987740065461745  0.8754166990713369
  0.0842961742890736  0.7504346717097204  0.1255176634632784
  0.2544022502173841  0.8711653644496413  0.9962687443647334
  0.0843860207306676  0.7501255513896454  0.8750128184477779
  0.2500804624761928  0.6229129161821909  0.9987091380105203
  0.2500014170611181  0.3757401568824804  0.2515157577905544
  0.0821228756098432  0.4980952826085187  0.1253089485423553
  0.2508498343765452  0.6245288446425064  0.2498000063560916
  0.0830758158120794  0.4984359987213660  0.3734181454872859
  0.4167293592943103  0.0011408804877343  0.3764158881402898
  0.5821422341286991  0.1252292181457738  0.2502027760886755
  0.4178555410994871  0.9997941994375061  0.1247679215164035
  0.5832686972582545  0.8735805325757666  0.2488551420109759
  0.5835310432270125  0.6266813894858203  0.5010742204035464
  0.4159637012823165  0.7495824610063140  0.3749545054982575
  0.5840338206209622  0.8750416585682202  0.5004151038253004
  0.4164675123590359  0.7489189699054091  0.6233159522188023
  0.4165674221840743  0.5014916132681435  0.8760776960681468
  0.5832928430340312  0.6242675851577805  0.7491565539470806
  0.4167038269456780  0.5008369845519053  0.6257280668480386
  0.5834287971481347  0.3739193754536682  0.7485050856242635
  0.5831249839187409  0.1262500299086410  0.0011835707519121
  0.4164544454952925  0.2502802436085961  0.8742971447279256
  0.5835428563142651  0.3757014651741384  0.9997155897948645
  0.4168726113418179  0.2488139852436351  0.1237477263347678
  0.4162143800358704  0.2514986849030260  0.6262979730896959
  0.5807628933372575  0.3764576836918285  0.5009699808448750
  0.4174018615164411  0.2498003153638119  0.3751406131362384
  0.5827503178336010  0.1238429360637349  0.4992307868964921
  0.5836695355875097  0.8762290667788517  0.7512269596712681
  0.4153063530066161  0.0001045408077712  0.6247645531414887
  0.5844569151062721  0.1250010724947738  0.7498405068745664
  0.4171547263460517  0.9986690857850927  0.8729503314108609
  0.4172463096663657  0.7507663574556528  0.1261543155177399
  0.5825959656335390  0.8748564439637414  0.0001982719550475
  0.4192338938749156  0.7490264901299988  0.8735399947081870
  0.5837824206732437  0.6237009309110119  0.9984965075008509
  0.5828419304629311  0.3770475258604979  0.2513266275873982
  0.4155382784560824  0.5001563896320018  0.1249974057284021
  0.5846932870171546  0.6252317995954725  0.2498898142077448
  0.4163269427953357  0.4987724728263171  0.3737657255835902
  0.7490896815431829  0.0026165643243452  0.3771400991801329
  0.9078576860486793  0.1360493293783964  0.2548096942725139
  0.7507200443346226  0.0003489034079898  0.1261736422025288
  0.9176926481947982  0.8723165831438342  0.2487928852607559
  0.9167614791251746  0.6263364573512350  0.5010329076299490
  0.7500163985154348  0.7515458788848218  0.3745617886965827
  0.9173014857512360  0.8748314832537286  0.5004009025924374
  0.7501322065693585  0.7487460341254043  0.6236854001114536
  0.7501798981528106  0.5009771937945513  0.8763731456863678
  0.9158432340043098  0.6249367588943197  0.7499750975880457
  0.7514585270152244  0.4998467048966431  0.6246030322613202
  0.9166507606578171  0.3736189199127830  0.7489053782233797
  0.9163030720431770  0.1259093184115195  0.0036132191451017
  0.7486532280957655  0.2497219428200584  0.8758550578361003
  0.9175421254073325  0.3744341305273842  0.0000783583045766
  0.7486498147921808  0.2498231380143764  0.1242243811480988
  0.7499153038778722  0.2512879440388019  0.6270844661710971
  0.9156105970251985  0.3749814305442362  0.4998724389450699
  0.7455955559619402  0.2537287229551279  0.3788312868566760
  0.9157008373041405  0.1244758338423870  0.4995630592161006
  0.9169201726719067  0.8765808076737863  0.7515579594632028
  0.7491450828383007  0.0001957757361950  0.6254686955467534
  0.9178752594025970  0.1246882287148045  0.7519027306725033
  0.7499947313226449  0.9984829462936949  0.8742553329561382
  0.7505821316161603  0.7515406009284268  0.1265492708908217
  0.9154047740534282  0.8740904491246765  0.0000066415316461
  0.7510515840090426  0.7495800445711190  0.8750905988748678
  0.9168838141340219  0.6231937290096331  0.9987288069773057
  0.9154970024552886  0.3745785101887981  0.2512247441327001
  0.7492298343879251  0.5003510673904982  0.1250102528061182
  0.9182437464035278  0.6251479066949793  0.2500268835706549
  0.7502488073125464  0.4997243775895283  0.3735854743442619
 
  0.00000000E+00  0.00000000E+00  0.00000000E+00
  0.00000000E+00  0.00000000E+00  0.00000000E+00
  0.00000000E+00  0.00000000E+00  0.00000000E+00
  0.00000000E+00  0.00000000E+00  0.00000000E+00
  0.00000000E+00  0.00000000E+00  0.00000000E+00
  0.00000000E+00  0.00000000E+00  0.00000000E+00
  0.00000000E+00  0.00000000E+00  0.00000000E+00
  0.00000000E+00  0.00000000E+00  0.00000000E+00
  0.00000000E+00  0.00000000E+00  0.00000000E+00
  0.00000000E+00  0.00000000E+00  0.00000000E+00
  0.00000000E+00  0.00000000E+00  0.00000000E+00
  0.00000000E+00  0.00000000E+00  0.00000000E+00
  0.00000000E+00  0.00000000E+00  0.00000000E+00
  0.00000000E+00  0.00000000E+00  0.00000000E+00
  0.00000000E+00  0.00000000E+00  0.00000000E+00
  0.00000000E+00  0.00000000E+00  0.00000000E+00
  0.00000000E+00  0.00000000E+00  0.00000000E+00
  0.00000000E+00  0.00000000E+00  0.00000000E+00
  0.00000000E+00  0.00000000E+00  0.00000000E+00
  0.00000000E+00  0.00000000E+00  0.00000000E+00
  0.00000000E+00  0.00000000E+00  0.00000000E+00
  0.00000000E+00  0.00000000E+00  0.00000000E+00
  0.00000000E+00  0.00000000E+00  0.00000000E+00
  0.00000000E+00  0.00000000E+00  0.00000000E+00
  0.00000000E+00  0.00000000E+00  0.00000000E+00
  0.00000000E+00  0.00000000E+00  0.00000000E+00
  0.00000000E+00  0.00000000E+00  0.00000000E+00
  0.00000000E+00  0.00000000E+00  0.00000000E+00
  0.00000000E+00  0.00000000E+00  0.00000000E+00
  0.00000000E+00  0.00000000E+00  0.00000000E+00
  0.00000000E+00  0.00000000E+00  0.00000000E+00
  0.00000000E+00  0.00000000E+00  0.00000000E+00
  0.00000000E+00  0.00000000E+00  0.00000000E+00
  0.00000000E+00  0.00000000E+00  0.00000000E+00
  0.00000000E+00  0.00000000E+00  0.00000000E+00
  0.00000000E+00  0.00000000E+00  0.00000000E+00
  0.00000000E+00  0.00000000E+00  0.00000000E+00
  0.00000000E+00  0.00000000E+00  0.00000000E+00
  0.00000000E+00  0.00000000E+00  0.00000000E+00
  0.00000000E+00  0.00000000E+00  0.00000000E+00
  0.00000000E+00  0.00000000E+00  0.00000000E+00
  0.00000000E+00  0.00000000E+00  0.00000000E+00
  0.00000000E+00  0.00000000E+00  0.00000000E+00
  0.00000000E+00  0.00000000E+00  0.00000000E+00
  0.00000000E+00  0.00000000E+00  0.00000000E+00
  0.00000000E+00  0.00000000E+00  0.00000000E+00
  0.00000000E+00  0.00000000E+00  0.00000000E+00
  0.00000000E+00  0.00000000E+00  0.00000000E+00
  0.00000000E+00  0.00000000E+00  0.00000000E+00
  0.00000000E+00  0.00000000E+00  0.00000000E+00
  0.00000000E+00  0.00000000E+00  0.00000000E+00
  0.00000000E+00  0.00000000E+00  0.00000000E+00
  0.00000000E+00  0.00000000E+00  0.00000000E+00
  0.00000000E+00  0.00000000E+00  0.00000000E+00
  0.00000000E+00  0.00000000E+00  0.00000000E+00
  0.00000000E+00  0.00000000E+00  0.00000000E+00
  0.00000000E+00  0.00000000E+00  0.00000000E+00
  0.00000000E+00  0.00000000E+00  0.00000000E+00
  0.00000000E+00  0.00000000E+00  0.00000000E+00
  0.00000000E+00  0.00000000E+00  0.00000000E+00
  0.00000000E+00  0.00000000E+00  0.00000000E+00
  0.00000000E+00  0.00000000E+00  0.00000000E+00
  0.00000000E+00  0.00000000E+00  0.00000000E+00
  0.00000000E+00  0.00000000E+00  0.00000000E+00
  0.00000000E+00  0.00000000E+00  0.00000000E+00
  0.00000000E+00  0.00000000E+00  0.00000000E+00
  0.00000000E+00  0.00000000E+00  0.00000000E+00
  0.00000000E+00  0.00000000E+00  0.00000000E+00
  0.00000000E+00  0.00000000E+00  0.00000000E+00
  0.00000000E+00  0.00000000E+00  0.00000000E+00
  0.00000000E+00  0.00000000E+00  0.00000000E+00
  0.00000000E+00  0.00000000E+00  0.00000000E+00
  0.00000000E+00  0.00000000E+00  0.00000000E+00
  0.00000000E+00  0.00000000E+00  0.00000000E+00
  0.00000000E+00  0.00000000E+00  0.00000000E+00
  0.00000000E+00  0.00000000E+00  0.00000000E+00
  0.00000000E+00  0.00000000E+00  0.00000000E+00
  0.00000000E+00  0.00000000E+00  0.00000000E+00
  0.00000000E+00  0.00000000E+00  0.00000000E+00
  0.00000000E+00  0.00000000E+00  0.00000000E+00
  0.00000000E+00  0.00000000E+00  0.00000000E+00
  0.00000000E+00  0.00000000E+00  0.00000000E+00
  0.00000000E+00  0.00000000E+00  0.00000000E+00
  0.00000000E+00  0.00000000E+00  0.00000000E+00
  0.00000000E+00  0.00000000E+00  0.00000000E+00
  0.00000000E+00  0.00000000E+00  0.00000000E+00
  0.00000000E+00  0.00000000E+00  0.00000000E+00
  0.00000000E+00  0.00000000E+00  0.00000000E+00
  0.00000000E+00  0.00000000E+00  0.00000000E+00
  0.00000000E+00  0.00000000E+00  0.00000000E+00
  0.00000000E+00  0.00000000E+00  0.00000000E+00
  0.00000000E+00  0.00000000E+00  0.00000000E+00
  0.00000000E+00  0.00000000E+00  0.00000000E+00
  0.00000000E+00  0.00000000E+00  0.00000000E+00
  0.00000000E+00  0.00000000E+00  0.00000000E+00
  0.00000000E+00  0.00000000E+00  0.00000000E+00
  0.00000000E+00  0.00000000E+00  0.00000000E+00
  0.00000000E+00  0.00000000E+00  0.00000000E+00
  0.00000000E+00  0.00000000E+00  0.00000000E+00
  0.00000000E+00  0.00000000E+00  0.00000000E+00
  0.00000000E+00  0.00000000E+00  0.00000000E+00
  0.00000000E+00  0.00000000E+00  0.00000000E+00
  0.00000000E+00  0.00000000E+00  0.00000000E+00
  0.00000000E+00  0.00000000E+00  0.00000000E+00
  0.00000000E+00  0.00000000E+00  0.00000000E+00
  0.00000000E+00  0.00000000E+00  0.00000000E+00
  0.00000000E+00  0.00000000E+00  0.00000000E+00
  0.00000000E+00  0.00000000E+00  0.00000000E+00
  0.00000000E+00  0.00000000E+00  0.00000000E+00
  0.00000000E+00  0.00000000E+00  0.00000000E+00
  0.00000000E+00  0.00000000E+00  0.00000000E+00
  0.00000000E+00  0.00000000E+00  0.00000000E+00
  0.00000000E+00  0.00000000E+00  0.00000000E+00
  0.00000000E+00  0.00000000E+00  0.00000000E+00
  0.00000000E+00  0.00000000E+00  0.00000000E+00
  0.00000000E+00  0.00000000E+00  0.00000000E+00
  0.00000000E+00  0.00000000E+00  0.00000000E+00
  0.00000000E+00  0.00000000E+00  0.00000000E+00
  0.00000000E+00  0.00000000E+00  0.00000000E+00
  0.00000000E+00  0.00000000E+00  0.00000000E+00
  0.00000000E+00  0.00000000E+00  0.00000000E+00
  0.00000000E+00  0.00000000E+00  0.00000000E+00
  0.00000000E+00  0.00000000E+00  0.00000000E+00
  0.00000000E+00  0.00000000E+00  0.00000000E+00
  0.00000000E+00  0.00000000E+00  0.00000000E+00
  0.00000000E+00  0.00000000E+00  0.00000000E+00
  0.00000000E+00  0.00000000E+00  0.00000000E+00
  0.00000000E+00  0.00000000E+00  0.00000000E+00
  0.00000000E+00  0.00000000E+00  0.00000000E+00
  0.00000000E+00  0.00000000E+00  0.00000000E+00
  0.00000000E+00  0.00000000E+00  0.00000000E+00
  0.00000000E+00  0.00000000E+00  0.00000000E+00
  0.00000000E+00  0.00000000E+00  0.00000000E+00
  0.00000000E+00  0.00000000E+00  0.00000000E+00
  0.00000000E+00  0.00000000E+00  0.00000000E+00
  0.00000000E+00  0.00000000E+00  0.00000000E+00
  0.00000000E+00  0.00000000E+00  0.00000000E+00
  0.00000000E+00  0.00000000E+00  0.00000000E+00
  0.00000000E+00  0.00000000E+00  0.00000000E+00
  0.00000000E+00  0.00000000E+00  0.00000000E+00
  0.00000000E+00  0.00000000E+00  0.00000000E+00
  0.00000000E+00  0.00000000E+00  0.00000000E+00
  0.00000000E+00  0.00000000E+00  0.00000000E+00
  0.00000000E+00  0.00000000E+00  0.00000000E+00
  0.00000000E+00  0.00000000E+00  0.00000000E+00
  0.00000000E+00  0.00000000E+00  0.00000000E+00
  0.00000000E+00  0.00000000E+00  0.00000000E+00
  0.00000000E+00  0.00000000E+00  0.00000000E+00
  0.00000000E+00  0.00000000E+00  0.00000000E+00
  0.00000000E+00  0.00000000E+00  0.00000000E+00
  0.00000000E+00  0.00000000E+00  0.00000000E+00
  0.00000000E+00  0.00000000E+00  0.00000000E+00
  0.00000000E+00  0.00000000E+00  0.00000000E+00
  0.00000000E+00  0.00000000E+00  0.00000000E+00
  0.00000000E+00  0.00000000E+00  0.00000000E+00
  0.00000000E+00  0.00000000E+00  0.00000000E+00
  0.00000000E+00  0.00000000E+00  0.00000000E+00
  0.00000000E+00  0.00000000E+00  0.00000000E+00
  0.00000000E+00  0.00000000E+00  0.00000000E+00
  0.00000000E+00  0.00000000E+00  0.00000000E+00
  0.00000000E+00  0.00000000E+00  0.00000000E+00
  0.00000000E+00  0.00000000E+00  0.00000000E+00
  0.00000000E+00  0.00000000E+00  0.00000000E+00
  0.00000000E+00  0.00000000E+00  0.00000000E+00
  0.00000000E+00  0.00000000E+00  0.00000000E+00
  0.00000000E+00  0.00000000E+00  0.00000000E+00
  0.00000000E+00  0.00000000E+00  0.00000000E+00
  0.00000000E+00  0.00000000E+00  0.00000000E+00
  0.00000000E+00  0.00000000E+00  0.00000000E+00
  0.00000000E+00  0.00000000E+00  0.00000000E+00
  0.00000000E+00  0.00000000E+00  0.00000000E+00
  0.00000000E+00  0.00000000E+00  0.00000000E+00
  0.00000000E+00  0.00000000E+00  0.00000000E+00
  0.00000000E+00  0.00000000E+00  0.00000000E+00
  0.00000000E+00  0.00000000E+00  0.00000000E+00
  0.00000000E+00  0.00000000E+00  0.00000000E+00
  0.00000000E+00  0.00000000E+00  0.00000000E+00
  0.00000000E+00  0.00000000E+00  0.00000000E+00
  0.00000000E+00  0.00000000E+00  0.00000000E+00
  0.00000000E+00  0.00000000E+00  0.00000000E+00
  0.00000000E+00  0.00000000E+00  0.00000000E+00
  0.00000000E+00  0.00000000E+00  0.00000000E+00
  0.00000000E+00  0.00000000E+00  0.00000000E+00
  0.00000000E+00  0.00000000E+00  0.00000000E+00
  0.00000000E+00  0.00000000E+00  0.00000000E+00
  0.00000000E+00  0.00000000E+00  0.00000000E+00
  0.00000000E+00  0.00000000E+00  0.00000000E+00
  0.00000000E+00  0.00000000E+00  0.00000000E+00
  0.00000000E+00  0.00000000E+00  0.00000000E+00
  0.00000000E+00  0.00000000E+00  0.00000000E+00
  0.00000000E+00  0.00000000E+00  0.00000000E+00
  0.00000000E+00  0.00000000E+00  0.00000000E+00
