C_N1                                    
   1.00000000000000     
    12.7657781140999997    0.0000000000000000    0.0000000000000000
     0.0000000000000000   11.0554881486000003    0.0000000000000000
     0.0000000000000000    0.0000000000000000   10.3624043882999999
   Ga   N 
    64    64   
Direct
  0.0000000000000000  0.1675273111537747  0.2547123159745920
  0.1251107091561123  0.0778598606370422 -0.0034055282384604
  0.1243556508173671  0.4167409397493466  0.2508453989594916
  0.0000000000000000  0.3368285065220122 -0.0004011381455696
  0.0000000000000000  0.1677866255152664  0.7516937125045460
  0.1251143009559619  0.0832346866094344  0.5024895760283310
  0.1253478930823582  0.4174917026023980  0.7503949222773526
  0.0000000000000000  0.3343122708067316  0.5027474230352234
  0.0000000000000000  0.6666430982761955  0.2506497372802282
  0.1254378707020084  0.5846275514485102  0.0006675417391623
  0.1250091419977433  0.9170575710771071  0.2511368366705651
  0.0000000000000000  0.8323361176649385  0.0008135803613650
  0.0000000000000000  0.6665102348308051  0.7504214739272916
  0.1250937261202343  0.5835116556665192  0.5004093558132192
  0.1250277486159163  0.9153414719757315  0.7495773898085356
  0.0000000000000000  0.8330103042936169  0.5000436453025524
  0.2489740953233132  0.1663234198235768  0.2513336358113063
  0.3746979789503312  0.0830465109403802  0.0004246744531134
  0.3748621454929346  0.4165690508150772  0.2506264278013273
  0.2489446579841487  0.3338339642194156  0.0007962182224405
  0.2504347794107362  0.1671320007725521  0.7502797048499343
  0.3749961727841254  0.0834357832221964  0.5003513211790103
  0.3749757547133996  0.4166598282018426  0.7505580025212504
  0.2500286853794358  0.3336107798133318  0.5002537815224394
  0.2500627394131646  0.6665676847045051  0.2507224139143790
  0.3751647913781222  0.5828700337449133  0.0006700216686812
  0.3749905079006558  0.9166032025537658  0.2507852262598112
  0.2509599306163157  0.8322681809889665  0.0004358547316866
  0.2502477818638980  0.6665712571118368  0.7503097221052714
  0.3750611030864631  0.5833576205263602  0.5006051937290965
  0.3750641563673249  0.9165971916872253  0.7503845551378867
  0.2501584737816073  0.8332107375192532  0.5003371748483788
  0.5000000000000000  0.1668374778055695  0.2509776506203020
  0.6253020350496629  0.0830465109403802  0.0004246744531134
  0.6251378685070594  0.4165690508150772  0.2506264278013273
  0.5000000000000000  0.3335359592628800  0.0004175840521091
  0.5000000000000000  0.1667416315241431  0.7505014408743204
  0.6250038412158686  0.0834357832221964  0.5003513211790103
  0.6250242592865944  0.4166598282018426  0.7505580025212504
  0.5000000000000000  0.3334914371655342  0.5006530304578699
  0.5000000000000000  0.6665211910406149  0.2507354773248481
  0.6248352226218716  0.5828700337449133  0.0006700216686812
  0.6250095060993385  0.9166032025537658  0.2507852262598112
  0.5000000000000000  0.8331863713404609  0.0005705953904593
  0.5000000000000000  0.6665775165348682  0.7505755904919573
  0.6249389109135307  0.5833576205263602  0.5006051937290965
  0.6249358576326692  0.9165971916872253  0.7503845551378867
  0.5000000000000000  0.8333390101321938  0.5006050194774774
  0.7510259046766868  0.1663234198235768  0.2513336358113063
  0.8748893048438819  0.0778598606370422 -0.0034055282384604
  0.8756443631826268  0.4167409397493466  0.2508453989594916
  0.7510553420158513  0.3338339642194156  0.0007962182224405
  0.7495652205892641  0.1671320007725521  0.7502797048499343
  0.8748857130440322  0.0832346866094344  0.5024895760283310
  0.8746521209176359  0.4174917026023980  0.7503949222773526
  0.7499713146205639  0.3336107798133318  0.5002537815224394
  0.7499372605868355  0.6665676847045051  0.2507224139143790
  0.8745621432979858  0.5846275514485102  0.0006675417391623
  0.8749908720022507  0.9170575710771071  0.2511368366705651
  0.7490400693836846  0.8322681809889665  0.0004358547316866
  0.7497522181361017  0.6665712571118368  0.7503097221052714
  0.8749062878797598  0.5835116556665192  0.5004093558132192
  0.8749722653840776  0.9153414719757315  0.7495773898085356
  0.7498415262183925  0.8332107375192532  0.5003371748483788
  0.1256093700309801  0.0825694886284049  0.3147199338665314
  0.1257246867157929  0.4194205126468918  0.0619924605784571
  0.0000000000000000  0.3351212694112066  0.3155351709321772
  0.0000000000000000  0.1670277282827363  0.5629235562631232
  0.1255447795086265  0.0822338315489882  0.8093468366331943
  0.1257004570291716  0.4173919012464752  0.5620595017324068
  0.0000000000000000  0.3353435856694764  0.8097897076763727
  0.0000000000000000  0.6666740638701278  0.0619837726880439
  0.1250955348115650  0.5835992696550842  0.3118286583285780
  0.1257029988111903  0.9141575525221152  0.0620309957149206
  0.0000000000000000  0.8333103056484830  0.3114160825124178
  0.0000000000000000  0.6666491208900055  0.5617109863863426
  0.1252292136553751  0.5839726378623769  0.8118051360017294
  0.1250137277406946  0.9159223598937917  0.5615780870726281
  0.0000000000000000  0.8330498402089769  0.8119824556945666
  0.2477774519669862  0.1663012681829520  0.0617176108021973
  0.3749139107688576  0.0833862516109300  0.3113752393760325
  0.3749015543833568  0.4161709902240814  0.0617715863365626
  0.2498586570835586  0.3332006672528406  0.3113794894233696
  0.2504731081516467  0.1671346120780650  0.5619651449557663
  0.3750823057811615  0.0832052034878184  0.8119818061624654
  0.3750862414781339  0.4168461884076705  0.5617651180803225
  0.2500392697147296  0.3333507055374076  0.8120767253971163
  0.2508852924859125  0.6667360807104472  0.0620424660148227
  0.3750674801418224  0.5831333677690064  0.3118457938885087
  0.3751667714626127  0.9169699066588041  0.0618622453944400
  0.2501377172564672  0.8331988054062279  0.3116797371407093
  0.2501811016059828  0.6668050261324957  0.5616710550298346
  0.3751127843392262  0.5831470269955018  0.8118314121633251
  0.3750455314612098  0.9168708519769810  0.5616634722880295
  0.2503222679377644  0.8330822618526688  0.8116988488323266
  0.5000000000000000  0.1668467958098729  0.0618550239528496
  0.6250861032311362  0.0833862516109300  0.3113752393760325
  0.6250984596166373  0.4161709902240814  0.0617715863365626
  0.5000000000000000  0.3333395223170622  0.3117922141039852
  0.5000000000000000  0.1667574087409968  0.5617091732669676
  0.6249177082188325  0.0832052034878184  0.8119818061624654
  0.6249137725218605  0.4168461884076705  0.5617651180803225
  0.5000000000000000  0.3332240691516458  0.8117161430980998
  0.5000000000000000  0.6666288953537962  0.0618553580211782
  0.6249325338581715  0.5831333677690064  0.3118457938885087
  0.6248332425373813  0.9169699066588041  0.0618622453944400
  0.5000000000000000  0.8332116206585468  0.3117645650567040
  0.5000000000000000  0.6668423882692180  0.5618089602375104
  0.6248872296607676  0.5831470269955018  0.8118314121633251
  0.6249544825387843  0.9168708519769810  0.5616634722880295
  0.5000000000000000  0.8332323145262318  0.8118008343519553
  0.7522225480330137  0.1663012681829520  0.0617176108021973
  0.8743906439690143  0.0825694886284049  0.3147199338665314
  0.8742753272842008  0.4194205126468918  0.0619924605784571
  0.7501413429164416  0.3332006672528406  0.3113794894233696
  0.7495268918483532  0.1671346120780650  0.5619651449557663
  0.8744552344913672  0.0822338315489882  0.8093468366331943
  0.8742995569708224  0.4173919012464752  0.5620595017324068
  0.7499607302852703  0.3333507055374076  0.8120767253971163
  0.7491147075140874  0.6667360807104472  0.0620424660148227
  0.8749044791884290  0.5835992696550842  0.3118286583285780
  0.8742970151888038  0.9141575525221152  0.0620309957149206
  0.7498622827435325  0.8331988054062279  0.3116797371407093
  0.7498188983940173  0.6668050261324957  0.5616710550298346
  0.8747708003446187  0.5839726378623769  0.8118051360017294
  0.8749862862592995  0.9159223598937917  0.5615780870726281
  0.7496777320622356  0.8330822618526688  0.8116988488323266
  0.0000000000000000  0.1708970979233797  0.0652813227710540
 
  0.00000000E+00  0.00000000E+00  0.00000000E+00
  0.00000000E+00  0.00000000E+00  0.00000000E+00
  0.00000000E+00  0.00000000E+00  0.00000000E+00
  0.00000000E+00  0.00000000E+00  0.00000000E+00
  0.00000000E+00  0.00000000E+00  0.00000000E+00
  0.00000000E+00  0.00000000E+00  0.00000000E+00
  0.00000000E+00  0.00000000E+00  0.00000000E+00
  0.00000000E+00  0.00000000E+00  0.00000000E+00
  0.00000000E+00  0.00000000E+00  0.00000000E+00
  0.00000000E+00  0.00000000E+00  0.00000000E+00
  0.00000000E+00  0.00000000E+00  0.00000000E+00
  0.00000000E+00  0.00000000E+00  0.00000000E+00
  0.00000000E+00  0.00000000E+00  0.00000000E+00
  0.00000000E+00  0.00000000E+00  0.00000000E+00
  0.00000000E+00  0.00000000E+00  0.00000000E+00
  0.00000000E+00  0.00000000E+00  0.00000000E+00
  0.00000000E+00  0.00000000E+00  0.00000000E+00
  0.00000000E+00  0.00000000E+00  0.00000000E+00
  0.00000000E+00  0.00000000E+00  0.00000000E+00
  0.00000000E+00  0.00000000E+00  0.00000000E+00
  0.00000000E+00  0.00000000E+00  0.00000000E+00
  0.00000000E+00  0.00000000E+00  0.00000000E+00
  0.00000000E+00  0.00000000E+00  0.00000000E+00
  0.00000000E+00  0.00000000E+00  0.00000000E+00
  0.00000000E+00  0.00000000E+00  0.00000000E+00
  0.00000000E+00  0.00000000E+00  0.00000000E+00
  0.00000000E+00  0.00000000E+00  0.00000000E+00
  0.00000000E+00  0.00000000E+00  0.00000000E+00
  0.00000000E+00  0.00000000E+00  0.00000000E+00
  0.00000000E+00  0.00000000E+00  0.00000000E+00
  0.00000000E+00  0.00000000E+00  0.00000000E+00
  0.00000000E+00  0.00000000E+00  0.00000000E+00
  0.00000000E+00  0.00000000E+00  0.00000000E+00
  0.00000000E+00  0.00000000E+00  0.00000000E+00
  0.00000000E+00  0.00000000E+00  0.00000000E+00
  0.00000000E+00  0.00000000E+00  0.00000000E+00
  0.00000000E+00  0.00000000E+00  0.00000000E+00
  0.00000000E+00  0.00000000E+00  0.00000000E+00
  0.00000000E+00  0.00000000E+00  0.00000000E+00
  0.00000000E+00  0.00000000E+00  0.00000000E+00
  0.00000000E+00  0.00000000E+00  0.00000000E+00
  0.00000000E+00  0.00000000E+00  0.00000000E+00
  0.00000000E+00  0.00000000E+00  0.00000000E+00
  0.00000000E+00  0.00000000E+00  0.00000000E+00
  0.00000000E+00  0.00000000E+00  0.00000000E+00
  0.00000000E+00  0.00000000E+00  0.00000000E+00
  0.00000000E+00  0.00000000E+00  0.00000000E+00
  0.00000000E+00  0.00000000E+00  0.00000000E+00
  0.00000000E+00  0.00000000E+00  0.00000000E+00
  0.00000000E+00  0.00000000E+00  0.00000000E+00
  0.00000000E+00  0.00000000E+00  0.00000000E+00
  0.00000000E+00  0.00000000E+00  0.00000000E+00
  0.00000000E+00  0.00000000E+00  0.00000000E+00
  0.00000000E+00  0.00000000E+00  0.00000000E+00
  0.00000000E+00  0.00000000E+00  0.00000000E+00
  0.00000000E+00  0.00000000E+00  0.00000000E+00
  0.00000000E+00  0.00000000E+00  0.00000000E+00
  0.00000000E+00  0.00000000E+00  0.00000000E+00
  0.00000000E+00  0.00000000E+00  0.00000000E+00
  0.00000000E+00  0.00000000E+00  0.00000000E+00
  0.00000000E+00  0.00000000E+00  0.00000000E+00
  0.00000000E+00  0.00000000E+00  0.00000000E+00
  0.00000000E+00  0.00000000E+00  0.00000000E+00
  0.00000000E+00  0.00000000E+00  0.00000000E+00
  0.00000000E+00  0.00000000E+00  0.00000000E+00
  0.00000000E+00  0.00000000E+00  0.00000000E+00
  0.00000000E+00  0.00000000E+00  0.00000000E+00
  0.00000000E+00  0.00000000E+00  0.00000000E+00
  0.00000000E+00  0.00000000E+00  0.00000000E+00
  0.00000000E+00  0.00000000E+00  0.00000000E+00
  0.00000000E+00  0.00000000E+00  0.00000000E+00
  0.00000000E+00  0.00000000E+00  0.00000000E+00
  0.00000000E+00  0.00000000E+00  0.00000000E+00
  0.00000000E+00  0.00000000E+00  0.00000000E+00
  0.00000000E+00  0.00000000E+00  0.00000000E+00
  0.00000000E+00  0.00000000E+00  0.00000000E+00
  0.00000000E+00  0.00000000E+00  0.00000000E+00
  0.00000000E+00  0.00000000E+00  0.00000000E+00
  0.00000000E+00  0.00000000E+00  0.00000000E+00
  0.00000000E+00  0.00000000E+00  0.00000000E+00
  0.00000000E+00  0.00000000E+00  0.00000000E+00
  0.00000000E+00  0.00000000E+00  0.00000000E+00
  0.00000000E+00  0.00000000E+00  0.00000000E+00
  0.00000000E+00  0.00000000E+00  0.00000000E+00
  0.00000000E+00  0.00000000E+00  0.00000000E+00
  0.00000000E+00  0.00000000E+00  0.00000000E+00
  0.00000000E+00  0.00000000E+00  0.00000000E+00
  0.00000000E+00  0.00000000E+00  0.00000000E+00
  0.00000000E+00  0.00000000E+00  0.00000000E+00
  0.00000000E+00  0.00000000E+00  0.00000000E+00
  0.00000000E+00  0.00000000E+00  0.00000000E+00
  0.00000000E+00  0.00000000E+00  0.00000000E+00
  0.00000000E+00  0.00000000E+00  0.00000000E+00
  0.00000000E+00  0.00000000E+00  0.00000000E+00
  0.00000000E+00  0.00000000E+00  0.00000000E+00
  0.00000000E+00  0.00000000E+00  0.00000000E+00
  0.00000000E+00  0.00000000E+00  0.00000000E+00
  0.00000000E+00  0.00000000E+00  0.00000000E+00
  0.00000000E+00  0.00000000E+00  0.00000000E+00
  0.00000000E+00  0.00000000E+00  0.00000000E+00
  0.00000000E+00  0.00000000E+00  0.00000000E+00
  0.00000000E+00  0.00000000E+00  0.00000000E+00
  0.00000000E+00  0.00000000E+00  0.00000000E+00
  0.00000000E+00  0.00000000E+00  0.00000000E+00
  0.00000000E+00  0.00000000E+00  0.00000000E+00
  0.00000000E+00  0.00000000E+00  0.00000000E+00
  0.00000000E+00  0.00000000E+00  0.00000000E+00
  0.00000000E+00  0.00000000E+00  0.00000000E+00
  0.00000000E+00  0.00000000E+00  0.00000000E+00
  0.00000000E+00  0.00000000E+00  0.00000000E+00
  0.00000000E+00  0.00000000E+00  0.00000000E+00
  0.00000000E+00  0.00000000E+00  0.00000000E+00
  0.00000000E+00  0.00000000E+00  0.00000000E+00
  0.00000000E+00  0.00000000E+00  0.00000000E+00
  0.00000000E+00  0.00000000E+00  0.00000000E+00
  0.00000000E+00  0.00000000E+00  0.00000000E+00
  0.00000000E+00  0.00000000E+00  0.00000000E+00
  0.00000000E+00  0.00000000E+00  0.00000000E+00
  0.00000000E+00  0.00000000E+00  0.00000000E+00
  0.00000000E+00  0.00000000E+00  0.00000000E+00
  0.00000000E+00  0.00000000E+00  0.00000000E+00
  0.00000000E+00  0.00000000E+00  0.00000000E+00
  0.00000000E+00  0.00000000E+00  0.00000000E+00
  0.00000000E+00  0.00000000E+00  0.00000000E+00
  0.00000000E+00  0.00000000E+00  0.00000000E+00
  0.00000000E+00  0.00000000E+00  0.00000000E+00
  0.00000000E+00  0.00000000E+00  0.00000000E+00
  0.00000000E+00  0.00000000E+00  0.00000000E+00
