C_N1                                    
   1.00000000000000     
    12.7657781140999997    0.0000000000000000    0.0000000000000000
     0.0000000000000000   11.0554881486000003    0.0000000000000000
     0.0000000000000000    0.0000000000000000   10.3624043882999999
   Ga   N    C 
    64    63     1
Direct
  0.0000000000000000  0.1666568095944925  0.2485353319224188
  0.1236161625664280  0.0842272568134348  0.0009582499589698
  0.1240742708429110  0.4161436656800674  0.2500615375700264
  0.0000000000000000  0.3316117611125975  0.0009717252268473
  0.0000000000000000  0.1666490662070572  0.7538128375451763
  0.1249104585427787  0.0833801067131574  0.5021945289418071
  0.1249893051407014  0.4169238495863254  0.7507781462321930
  0.0000000000000000  0.3333047346701719  0.5022111048743199
  0.0000000000000000  0.6669280102843231  0.2503164887688811
  0.1251784110705145  0.5842259269922465  0.0007274002093425
  0.1249631554239130  0.9177627802429242  0.2501072770127735
  0.0000000000000000  0.8347544664977136  0.0013729242135625
  0.0000000000000000  0.6669089278689171  0.7508155154585054
  0.1249390577053617  0.5832580017239053  0.5003494473175962
  0.1251007141511522  0.9164716335170695  0.7507532766138780
  0.0000000000000000  0.8333155811589350  0.5001557504101655
  0.2490794316745522  0.1660145979213823  0.2501052190903650
  0.3753408249168473  0.0833360651517410  0.0005989724039708
  0.3746867167104284  0.4163429259614730  0.2503007127000956
  0.2490334782692400  0.3327761090500445  0.0014011569396928
  0.2501080554711379  0.1665260000266997  0.7507399423024452
  0.3748638081092110  0.0835270157919581  0.5003423015329886
  0.3747812676122919  0.4163914489652569  0.7508444867905411
  0.2498728521855966  0.3333141839571496  0.5001716669079954
  0.2498544366051618  0.6666786319135340  0.2503914807069165
  0.3750317719527345  0.5829274039218220  0.0006970192125522
  0.3748439218052226  0.9167641293989846  0.2505567740032220
  0.2504691288306304  0.8330775041541045  0.0006109116511084
  0.2500349001589370  0.6666426686641316  0.7505097636547333
  0.3749165013334377  0.5833170830681595  0.5005321873175319
  0.3749377212347866  0.9167048842309100  0.7505907722757428
  0.2498214976616424  0.8334323070257597  0.5003415780092269
  0.5000000000000000  0.1665273311077939  0.2503810280321801
  0.6246591890831468  0.0833360651517410  0.0005989724039708
  0.6253132972895656  0.4163429259614730  0.2503007127000956
  0.5000000000000000  0.3331156485552924  0.0007733339937559
  0.5000000000000000  0.1665971653226848  0.7504938597847470
  0.6251362058907830  0.0835270157919581  0.5003423015329886
  0.6252187463877021  0.4163914489652569  0.7508444867905411
  0.5000000000000000  0.3333538105400820  0.5005280566808281
  0.5000000000000000  0.6665837747757379  0.2505174248989732
  0.6249682420472595  0.5829274039218220  0.0006970192125522
  0.6251560921947714  0.9167641293989846  0.2505567740032220
  0.5000000000000000  0.8331860640499897  0.0006779135090298
  0.5000000000000000  0.6665995707080654  0.7506799385911975
  0.6250835126665493  0.5833170830681595  0.5005321873175319
  0.6250622927652074  0.9167048842309100  0.7505907722757428
  0.5000000000000000  0.8335562625809203  0.5005510739957515
  0.7509205683254478  0.1660145979213823  0.2501052190903650
  0.8763838514335660  0.0842272568134348  0.0009582499589698
  0.8759257431570830  0.4161436656800674  0.2500615375700264
  0.7509665217307600  0.3327761090500445  0.0014011569396928
  0.7498919445288621  0.1665260000266997  0.7507399423024452
  0.8750895554572153  0.0833801067131574  0.5021945289418071
  0.8750107088592927  0.4169238495863254  0.7507781462321930
  0.7501271478144034  0.3333141839571496  0.5001716669079954
  0.7501455633948382  0.6666786319135340  0.2503914807069165
  0.8748216029294795  0.5842259269922465  0.0007274002093425
  0.8750368585760810  0.9177627802429242  0.2501072770127735
  0.7495308711693696  0.8330775041541045  0.0006109116511084
  0.7499650998410630  0.6666426686641316  0.7505097636547333
  0.8750609562946323  0.5832580017239053  0.5003494473175962
  0.8748992998488418  0.9164716335170695  0.7507532766138780
  0.7501785023383576  0.8334323070257597  0.5003415780092269
  0.1258613928835501  0.0826527751064461  0.3150741375643591
  0.1257585572324800  0.4193238757143973  0.0615971260191941
  0.0000000000000000  0.3343897478558020  0.3150770692780895
  0.0000000000000000  0.1667680051100007  0.5638123459574658
  0.1264275762990295  0.0822655236687382  0.8097188080083555
  0.1256304680831235  0.4171610039762257  0.5620324863353900
  0.0000000000000000  0.3351572119012332  0.8097044067809165
  0.0000000000000000  0.6674622272900805  0.0616378331885770
  0.1250669296789439  0.5834345603223028  0.3117333453617661
  0.1266088015095974  0.9148813951762236  0.0616228371482777
  0.0000000000000000  0.8333946947595692  0.3115104233489134
  0.0000000000000000  0.6666510406298443  0.5618295141615732
  0.1252136111949440  0.5838460097569609  0.8116495113411872
  0.1250182136640205  0.9159530193712513  0.5620304485027390
  0.0000000000000000  0.8331993899795762  0.8120944048846184
  0.2520869207492780  0.1662458947953027  0.0616492807992941
  0.3751392629265666  0.0832439444927573  0.3117789658013592
  0.3750990719801237  0.4165670455843866  0.0616131056432749
  0.2499175130253448  0.3331582676776108  0.3114791027259471
  0.2505977898644787  0.1671711399622353  0.5620254692586002
  0.3754487418558980  0.0830891213894347  0.8116032207435140
  0.3750811300499564  0.4168104782283919  0.5618310881554720
  0.2501140444350938  0.3332801359054613  0.8121193501206889
  0.2508718561510861  0.6667592698379678  0.0617727561185006
  0.3750512762065839  0.5831146117122401  0.3117495977990714
  0.3755143016912257  0.9165818999239406  0.0617925750280008
  0.2501533305943013  0.8331038358008200  0.3117746702376891
  0.2501471581442516  0.6667726766192885  0.5616954134641219
  0.3751226918442612  0.5831224268856090  0.8117017631708947
  0.3750238034104356  0.9167978997371975  0.5617498106068837
  0.2504702823353568  0.8328739978062245  0.8116019967552290
  0.5000000000000000  0.1667573206087241  0.0617831097890971
  0.6248607510734274  0.0832439444927573  0.3117789658013592
  0.6249009420198703  0.4165670455843866  0.0616131056432749
  0.5000000000000000  0.3332859810824544  0.3117166080189406
  0.5000000000000000  0.1667767682177228  0.5616937448678172
  0.6245512721440960  0.0830891213894347  0.8116032207435140
  0.6249188839500377  0.4168104782283919  0.5618310881554720
  0.5000000000000000  0.3332277337153542  0.8117427610448686
  0.5000000000000000  0.6665955670728962  0.0616962647825545
  0.6249487377934102  0.5831146117122401  0.3117495977990714
  0.6244857123087684  0.9165818999239406  0.0617925750280008
  0.5000000000000000  0.8332036532152856  0.3117764489548307
  0.5000000000000000  0.6668464260713733  0.5617678544633833
  0.6248773221557329  0.5831224268856090  0.8117017631708947
  0.6249762105895584  0.9167978997371975  0.5617498106068837
  0.5000000000000000  0.8331504503588079  0.8117138536119128
  0.7479130792507220  0.1662458947953027  0.0616492807992941
  0.8741386211164439  0.0826527751064461  0.3150741375643591
  0.8742414567675141  0.4193238757143973  0.0615971260191941
  0.7500824869746552  0.3331582676776108  0.3114791027259471
  0.7494022101355213  0.1671711399622353  0.5620254692586002
  0.8735724377009646  0.0822655236687382  0.8097188080083555
  0.8743695459168705  0.4171610039762257  0.5620324863353900
  0.7498859555649062  0.3332801359054613  0.8121193501206889
  0.7491281438489139  0.6667592698379678  0.0617727561185006
  0.8749330843210501  0.5834345603223028  0.3117333453617661
  0.8733912124903966  0.9148813951762236  0.0616228371482777
  0.7498466694056987  0.8331038358008200  0.3117746702376891
  0.7498528418557484  0.6667726766192885  0.5616954134641219
  0.8747864028050500  0.5838460097569609  0.8116495113411872
  0.8749818003359735  0.9159530193712513  0.5620304485027390
  0.7495297176646432  0.8328739978062245  0.8116019967552290
  0.0000000000000000  0.1667308172491531  0.0615257288289541
 
  0.00000000E+00  0.00000000E+00  0.00000000E+00
  0.00000000E+00  0.00000000E+00  0.00000000E+00
  0.00000000E+00  0.00000000E+00  0.00000000E+00
  0.00000000E+00  0.00000000E+00  0.00000000E+00
  0.00000000E+00  0.00000000E+00  0.00000000E+00
  0.00000000E+00  0.00000000E+00  0.00000000E+00
  0.00000000E+00  0.00000000E+00  0.00000000E+00
  0.00000000E+00  0.00000000E+00  0.00000000E+00
  0.00000000E+00  0.00000000E+00  0.00000000E+00
  0.00000000E+00  0.00000000E+00  0.00000000E+00
  0.00000000E+00  0.00000000E+00  0.00000000E+00
  0.00000000E+00  0.00000000E+00  0.00000000E+00
  0.00000000E+00  0.00000000E+00  0.00000000E+00
  0.00000000E+00  0.00000000E+00  0.00000000E+00
  0.00000000E+00  0.00000000E+00  0.00000000E+00
  0.00000000E+00  0.00000000E+00  0.00000000E+00
  0.00000000E+00  0.00000000E+00  0.00000000E+00
  0.00000000E+00  0.00000000E+00  0.00000000E+00
  0.00000000E+00  0.00000000E+00  0.00000000E+00
  0.00000000E+00  0.00000000E+00  0.00000000E+00
  0.00000000E+00  0.00000000E+00  0.00000000E+00
  0.00000000E+00  0.00000000E+00  0.00000000E+00
  0.00000000E+00  0.00000000E+00  0.00000000E+00
  0.00000000E+00  0.00000000E+00  0.00000000E+00
  0.00000000E+00  0.00000000E+00  0.00000000E+00
  0.00000000E+00  0.00000000E+00  0.00000000E+00
  0.00000000E+00  0.00000000E+00  0.00000000E+00
  0.00000000E+00  0.00000000E+00  0.00000000E+00
  0.00000000E+00  0.00000000E+00  0.00000000E+00
  0.00000000E+00  0.00000000E+00  0.00000000E+00
  0.00000000E+00  0.00000000E+00  0.00000000E+00
  0.00000000E+00  0.00000000E+00  0.00000000E+00
  0.00000000E+00  0.00000000E+00  0.00000000E+00
  0.00000000E+00  0.00000000E+00  0.00000000E+00
  0.00000000E+00  0.00000000E+00  0.00000000E+00
  0.00000000E+00  0.00000000E+00  0.00000000E+00
  0.00000000E+00  0.00000000E+00  0.00000000E+00
  0.00000000E+00  0.00000000E+00  0.00000000E+00
  0.00000000E+00  0.00000000E+00  0.00000000E+00
  0.00000000E+00  0.00000000E+00  0.00000000E+00
  0.00000000E+00  0.00000000E+00  0.00000000E+00
  0.00000000E+00  0.00000000E+00  0.00000000E+00
  0.00000000E+00  0.00000000E+00  0.00000000E+00
  0.00000000E+00  0.00000000E+00  0.00000000E+00
  0.00000000E+00  0.00000000E+00  0.00000000E+00
  0.00000000E+00  0.00000000E+00  0.00000000E+00
  0.00000000E+00  0.00000000E+00  0.00000000E+00
  0.00000000E+00  0.00000000E+00  0.00000000E+00
  0.00000000E+00  0.00000000E+00  0.00000000E+00
  0.00000000E+00  0.00000000E+00  0.00000000E+00
  0.00000000E+00  0.00000000E+00  0.00000000E+00
  0.00000000E+00  0.00000000E+00  0.00000000E+00
  0.00000000E+00  0.00000000E+00  0.00000000E+00
  0.00000000E+00  0.00000000E+00  0.00000000E+00
  0.00000000E+00  0.00000000E+00  0.00000000E+00
  0.00000000E+00  0.00000000E+00  0.00000000E+00
  0.00000000E+00  0.00000000E+00  0.00000000E+00
  0.00000000E+00  0.00000000E+00  0.00000000E+00
  0.00000000E+00  0.00000000E+00  0.00000000E+00
  0.00000000E+00  0.00000000E+00  0.00000000E+00
  0.00000000E+00  0.00000000E+00  0.00000000E+00
  0.00000000E+00  0.00000000E+00  0.00000000E+00
  0.00000000E+00  0.00000000E+00  0.00000000E+00
  0.00000000E+00  0.00000000E+00  0.00000000E+00
  0.00000000E+00  0.00000000E+00  0.00000000E+00
  0.00000000E+00  0.00000000E+00  0.00000000E+00
  0.00000000E+00  0.00000000E+00  0.00000000E+00
  0.00000000E+00  0.00000000E+00  0.00000000E+00
  0.00000000E+00  0.00000000E+00  0.00000000E+00
  0.00000000E+00  0.00000000E+00  0.00000000E+00
  0.00000000E+00  0.00000000E+00  0.00000000E+00
  0.00000000E+00  0.00000000E+00  0.00000000E+00
  0.00000000E+00  0.00000000E+00  0.00000000E+00
  0.00000000E+00  0.00000000E+00  0.00000000E+00
  0.00000000E+00  0.00000000E+00  0.00000000E+00
  0.00000000E+00  0.00000000E+00  0.00000000E+00
  0.00000000E+00  0.00000000E+00  0.00000000E+00
  0.00000000E+00  0.00000000E+00  0.00000000E+00
  0.00000000E+00  0.00000000E+00  0.00000000E+00
  0.00000000E+00  0.00000000E+00  0.00000000E+00
  0.00000000E+00  0.00000000E+00  0.00000000E+00
  0.00000000E+00  0.00000000E+00  0.00000000E+00
  0.00000000E+00  0.00000000E+00  0.00000000E+00
  0.00000000E+00  0.00000000E+00  0.00000000E+00
  0.00000000E+00  0.00000000E+00  0.00000000E+00
  0.00000000E+00  0.00000000E+00  0.00000000E+00
  0.00000000E+00  0.00000000E+00  0.00000000E+00
  0.00000000E+00  0.00000000E+00  0.00000000E+00
  0.00000000E+00  0.00000000E+00  0.00000000E+00
  0.00000000E+00  0.00000000E+00  0.00000000E+00
  0.00000000E+00  0.00000000E+00  0.00000000E+00
  0.00000000E+00  0.00000000E+00  0.00000000E+00
  0.00000000E+00  0.00000000E+00  0.00000000E+00
  0.00000000E+00  0.00000000E+00  0.00000000E+00
  0.00000000E+00  0.00000000E+00  0.00000000E+00
  0.00000000E+00  0.00000000E+00  0.00000000E+00
  0.00000000E+00  0.00000000E+00  0.00000000E+00
  0.00000000E+00  0.00000000E+00  0.00000000E+00
  0.00000000E+00  0.00000000E+00  0.00000000E+00
  0.00000000E+00  0.00000000E+00  0.00000000E+00
  0.00000000E+00  0.00000000E+00  0.00000000E+00
  0.00000000E+00  0.00000000E+00  0.00000000E+00
  0.00000000E+00  0.00000000E+00  0.00000000E+00
  0.00000000E+00  0.00000000E+00  0.00000000E+00
  0.00000000E+00  0.00000000E+00  0.00000000E+00
  0.00000000E+00  0.00000000E+00  0.00000000E+00
  0.00000000E+00  0.00000000E+00  0.00000000E+00
  0.00000000E+00  0.00000000E+00  0.00000000E+00
  0.00000000E+00  0.00000000E+00  0.00000000E+00
  0.00000000E+00  0.00000000E+00  0.00000000E+00
  0.00000000E+00  0.00000000E+00  0.00000000E+00
  0.00000000E+00  0.00000000E+00  0.00000000E+00
  0.00000000E+00  0.00000000E+00  0.00000000E+00
  0.00000000E+00  0.00000000E+00  0.00000000E+00
  0.00000000E+00  0.00000000E+00  0.00000000E+00
  0.00000000E+00  0.00000000E+00  0.00000000E+00
  0.00000000E+00  0.00000000E+00  0.00000000E+00
  0.00000000E+00  0.00000000E+00  0.00000000E+00
  0.00000000E+00  0.00000000E+00  0.00000000E+00
  0.00000000E+00  0.00000000E+00  0.00000000E+00
  0.00000000E+00  0.00000000E+00  0.00000000E+00
  0.00000000E+00  0.00000000E+00  0.00000000E+00
  0.00000000E+00  0.00000000E+00  0.00000000E+00
  0.00000000E+00  0.00000000E+00  0.00000000E+00
  0.00000000E+00  0.00000000E+00  0.00000000E+00
  0.00000000E+00  0.00000000E+00  0.00000000E+00
  0.00000000E+00  0.00000000E+00  0.00000000E+00
  0.00000000E+00  0.00000000E+00  0.00000000E+00
