C_N1                                    
   1.00000000000000     
    12.7657781140999997    0.0000000000000000    0.0000000000000000
     0.0000000000000000   11.0554881486000003    0.0000000000000000
     0.0000000000000000    0.0000000000000000   10.3624043882999999
   Ga   N    C 
    64    63     1
Direct
 -0.0000000000000000  0.1666568095944910  0.2485353319224198
  0.1236161625664298  0.0842272568134346  0.0009582499589681
  0.1240742708429095  0.4161436656800690  0.2500615375700261
 -0.0000000000000000  0.3316117611125995  0.0009717252268444
 -0.0000000000000000  0.1666490662070553  0.7538128375451782
  0.1249104585427789  0.0833801067131604  0.5021945289418039
  0.1249893051407009  0.4169238495863272  0.7507781462321956
 -0.0000000000000000  0.3333047346701738  0.5022111048743177
 -0.0000000000000000  0.6669280102843232  0.2503164887688819
  0.1251784110705173  0.5842259269922470  0.0007274002093414
  0.1249631554239136  0.9177627802429232  0.2501072770127708
 -0.0000000000000000  0.8347544664977115  0.0013729242135632
 -0.0000000000000000  0.6669089278689165  0.7508155154585076
  0.1249390577053608  0.5832580017239075  0.5003494473175976
  0.1251007141511552  0.9164716335170683  0.7507532766138796
 -0.0000000000000000  0.8333155811589379  0.5001557504101645
  0.2490794316745533  0.1660145979213813  0.2501052190903646
  0.3753408249168508  0.0833360651517421  0.0005989724039720
  0.3746867167104279  0.4163429259614759  0.2503007127000950
  0.2490334782692416  0.3327761090500474  0.0014011569396932
  0.2501080554711353  0.1665260000266985  0.7507399423024430
  0.3748638081092083  0.0835270157919614  0.5003423015329862
  0.3747812676122948  0.4163914489652572  0.7508444867905425
  0.2498728521855969  0.3333141839571477  0.5001716669079976
  0.2498544366051624  0.6666786319135374  0.2503914807069130
  0.3750317719527358  0.5829274039218226  0.0006970192125487
  0.3748439218052257  0.9167641293989841  0.2505567740032230
  0.2504691288306296  0.8330775041541018  0.0006109116511055
  0.2500349001589389  0.6666426686641314  0.7505097636547314
  0.3749165013334412  0.5833170830681630  0.5005321873175331
  0.3749377212347846  0.9167048842309120  0.7505907722757400
  0.2498214976616425  0.8334323070257580  0.5003415780092260
  0.5000000000000000  0.1665273311077914  0.2503810280321833
  0.6246591890831433  0.0833360651517421  0.0005989724039720
  0.6253132972895661  0.4163429259614759  0.2503007127000950
  0.5000000000000000  0.3331156485552902  0.0007733339937533
  0.5000000000000000  0.1665971653226817  0.7504938597847454
  0.6251362058907859  0.0835270157919614  0.5003423015329862
  0.6252187463876990  0.4163914489652572  0.7508444867905425
  0.5000000000000000  0.3333538105400803  0.5005280566808294
  0.5000000000000000  0.6665837747757358  0.2505174248989698
  0.6249682420472584  0.5829274039218226  0.0006970192125487
  0.6251560921947683  0.9167641293989841  0.2505567740032230
  0.5000000000000000  0.8331860640499910  0.0006779135090277
  0.5000000000000000  0.6665995707080646  0.7506799385911993
  0.6250835126665528  0.5833170830681630  0.5005321873175331
  0.6250622927652093  0.9167048842309120  0.7505907722757400
  0.5000000000000000  0.8335562625809187  0.5005510739957539
  0.7509205683254467  0.1660145979213813  0.2501052190903646
  0.8763838514335642  0.0842272568134346  0.0009582499589681
  0.8759257431570844  0.4161436656800690  0.2500615375700261
  0.7509665217307583  0.3327761090500474  0.0014011569396932
  0.7498919445288648  0.1665260000266985  0.7507399423024430
  0.8750895554572149  0.0833801067131604  0.5021945289418039
  0.8750107088592934  0.4169238495863272  0.7507781462321956
  0.7501271478144030  0.3333141839571477  0.5001716669079976
  0.7501455633948375  0.6666786319135374  0.2503914807069130
  0.8748216029294767  0.5842259269922470  0.0007274002093414
  0.8750368585760807  0.9177627802429232  0.2501072770127708
  0.7495308711693706  0.8330775041541018  0.0006109116511055
  0.7499650998410609  0.6666426686641314  0.7505097636547314
  0.8750609562946331  0.5832580017239075  0.5003494473175976
  0.8748992998488387  0.9164716335170683  0.7507532766138796
  0.7501785023383575  0.8334323070257580  0.5003415780092260
  0.1258613928835491  0.0826527751064474  0.3150741375643603
  0.1257585572324812  0.4193238757143948  0.0615971260191916
 -0.0000000000000000  0.3343897478558019  0.3150770692780919
 -0.0000000000000000  0.1667680051100035  0.5638123459574632
  0.1264275762990303  0.0822655236687369  0.8097188080083553
  0.1256304680831262  0.4171610039762289  0.5620324863353867
 -0.0000000000000000  0.3351572119012357  0.8097044067809189
 -0.0000000000000000  0.6674622272900775  0.0616378331885773
  0.1250669296789451  0.5834345603223061  0.3117333453617673
  0.1266088015095942  0.9148813951762249  0.0616228371482808
 -0.0000000000000000  0.8333946947595726  0.3115104233489128
 -0.0000000000000000  0.6666510406298464  0.5618295141615719
  0.1252136111949475  0.5838460097569631  0.8116495113411873
  0.1250182136640228  0.9159530193712517  0.5620304485027401
 -0.0000000000000000  0.8331993899795781  0.8120944048846195
  0.2520869207492762  0.1662458947953018  0.0616492807992945
  0.3751392629265655  0.0832439444927575  0.3117789658013593
  0.3750990719801262  0.4165670455843857  0.0616131056432723
  0.2499175130253433  0.3331582676776074  0.3114791027259506
  0.2505977898644774  0.1671711399622330  0.5620254692586012
  0.3754487418558972  0.0830891213894371  0.8116032207435121
  0.3750811300499591  0.4168104782283949  0.5618310881554747
  0.2501140444350933  0.3332801359054622  0.8121193501206904
  0.2508718561510885  0.6667592698379649  0.0617727561185003
  0.3750512762065843  0.5831146117122419  0.3117495977990712
  0.3755143016912231  0.9165818999239432  0.0617925750279985
  0.2501533305943043  0.8331038358008177  0.3117746702376912
  0.2501471581442527  0.6667726766192893  0.5616954134641184
  0.3751226918442621  0.5831224268856062  0.8117017631708947
  0.3750238034104339  0.9167978997371945  0.5617498106068867
  0.2504702823353580  0.8328739978062275  0.8116019967552299
  0.5000000000000000  0.1667573206087252  0.0617831097891004
  0.6248607510734284  0.0832439444927575  0.3117789658013593
  0.6249009420198679  0.4165670455843857  0.0616131056432723
  0.5000000000000000  0.3332859810824561  0.3117166080189416
  0.5000000000000000  0.1667767682177196  0.5616937448678176
  0.6245512721440968  0.0830891213894371  0.8116032207435121
  0.6249188839500351  0.4168104782283949  0.5618310881554747
  0.5000000000000000  0.3332277337153576  0.8117427610448706
  0.5000000000000000  0.6665955670728936  0.0616962647825544
  0.6249487377934096  0.5831146117122419  0.3117495977990712
  0.6244857123087711  0.9165818999239432  0.0617925750279985
  0.5000000000000000  0.8332036532152860  0.3117764489548281
  0.5000000000000000  0.6668464260713741  0.5617678544633856
  0.6248773221557320  0.5831224268856062  0.8117017631708947
  0.6249762105895601  0.9167978997371945  0.5617498106068867
  0.5000000000000000  0.8331504503588046  0.8117138536119152
  0.7479130792507237  0.1662458947953018  0.0616492807992945
  0.8741386211164450  0.0826527751064474  0.3150741375643603
  0.8742414567675130  0.4193238757143948  0.0615971260191916
  0.7500824869746568  0.3331582676776074  0.3114791027259506
  0.7494022101355224  0.1671711399622330  0.5620254692586012
  0.8735724377009640  0.0822655236687369  0.8097188080083553
  0.8743695459168680  0.4171610039762289  0.5620324863353867
  0.7498859555649069  0.3332801359054622  0.8121193501206904
  0.7491281438489117  0.6667592698379649  0.0617727561185003
  0.8749330843210492  0.5834345603223061  0.3117333453617673
  0.8733912124903996  0.9148813951762249  0.0616228371482808
  0.7498466694056958  0.8331038358008177  0.3117746702376912
  0.7498528418557472  0.6667726766192893  0.5616954134641184
  0.8747864028050467  0.5838460097569631  0.8116495113411873
  0.8749818003359711  0.9159530193712517  0.5620304485027401
  0.7495297176646418  0.8328739978062275  0.8116019967552299
 -0.0000000000000000  0.1667308172491518  0.0615257288289540
 
  0.00000000E+00  0.00000000E+00  0.00000000E+00
  0.00000000E+00  0.00000000E+00  0.00000000E+00
  0.00000000E+00  0.00000000E+00  0.00000000E+00
  0.00000000E+00  0.00000000E+00  0.00000000E+00
  0.00000000E+00  0.00000000E+00  0.00000000E+00
  0.00000000E+00  0.00000000E+00  0.00000000E+00
  0.00000000E+00  0.00000000E+00  0.00000000E+00
  0.00000000E+00  0.00000000E+00  0.00000000E+00
  0.00000000E+00  0.00000000E+00  0.00000000E+00
  0.00000000E+00  0.00000000E+00  0.00000000E+00
  0.00000000E+00  0.00000000E+00  0.00000000E+00
  0.00000000E+00  0.00000000E+00  0.00000000E+00
  0.00000000E+00  0.00000000E+00  0.00000000E+00
  0.00000000E+00  0.00000000E+00  0.00000000E+00
  0.00000000E+00  0.00000000E+00  0.00000000E+00
  0.00000000E+00  0.00000000E+00  0.00000000E+00
  0.00000000E+00  0.00000000E+00  0.00000000E+00
  0.00000000E+00  0.00000000E+00  0.00000000E+00
  0.00000000E+00  0.00000000E+00  0.00000000E+00
  0.00000000E+00  0.00000000E+00  0.00000000E+00
  0.00000000E+00  0.00000000E+00  0.00000000E+00
  0.00000000E+00  0.00000000E+00  0.00000000E+00
  0.00000000E+00  0.00000000E+00  0.00000000E+00
  0.00000000E+00  0.00000000E+00  0.00000000E+00
  0.00000000E+00  0.00000000E+00  0.00000000E+00
  0.00000000E+00  0.00000000E+00  0.00000000E+00
  0.00000000E+00  0.00000000E+00  0.00000000E+00
  0.00000000E+00  0.00000000E+00  0.00000000E+00
  0.00000000E+00  0.00000000E+00  0.00000000E+00
  0.00000000E+00  0.00000000E+00  0.00000000E+00
  0.00000000E+00  0.00000000E+00  0.00000000E+00
  0.00000000E+00  0.00000000E+00  0.00000000E+00
  0.00000000E+00  0.00000000E+00  0.00000000E+00
  0.00000000E+00  0.00000000E+00  0.00000000E+00
  0.00000000E+00  0.00000000E+00  0.00000000E+00
  0.00000000E+00  0.00000000E+00  0.00000000E+00
  0.00000000E+00  0.00000000E+00  0.00000000E+00
  0.00000000E+00  0.00000000E+00  0.00000000E+00
  0.00000000E+00  0.00000000E+00  0.00000000E+00
  0.00000000E+00  0.00000000E+00  0.00000000E+00
  0.00000000E+00  0.00000000E+00  0.00000000E+00
  0.00000000E+00  0.00000000E+00  0.00000000E+00
  0.00000000E+00  0.00000000E+00  0.00000000E+00
  0.00000000E+00  0.00000000E+00  0.00000000E+00
  0.00000000E+00  0.00000000E+00  0.00000000E+00
  0.00000000E+00  0.00000000E+00  0.00000000E+00
  0.00000000E+00  0.00000000E+00  0.00000000E+00
  0.00000000E+00  0.00000000E+00  0.00000000E+00
  0.00000000E+00  0.00000000E+00  0.00000000E+00
  0.00000000E+00  0.00000000E+00  0.00000000E+00
  0.00000000E+00  0.00000000E+00  0.00000000E+00
  0.00000000E+00  0.00000000E+00  0.00000000E+00
  0.00000000E+00  0.00000000E+00  0.00000000E+00
  0.00000000E+00  0.00000000E+00  0.00000000E+00
  0.00000000E+00  0.00000000E+00  0.00000000E+00
  0.00000000E+00  0.00000000E+00  0.00000000E+00
  0.00000000E+00  0.00000000E+00  0.00000000E+00
  0.00000000E+00  0.00000000E+00  0.00000000E+00
  0.00000000E+00  0.00000000E+00  0.00000000E+00
  0.00000000E+00  0.00000000E+00  0.00000000E+00
  0.00000000E+00  0.00000000E+00  0.00000000E+00
  0.00000000E+00  0.00000000E+00  0.00000000E+00
  0.00000000E+00  0.00000000E+00  0.00000000E+00
  0.00000000E+00  0.00000000E+00  0.00000000E+00
  0.00000000E+00  0.00000000E+00  0.00000000E+00
  0.00000000E+00  0.00000000E+00  0.00000000E+00
  0.00000000E+00  0.00000000E+00  0.00000000E+00
  0.00000000E+00  0.00000000E+00  0.00000000E+00
  0.00000000E+00  0.00000000E+00  0.00000000E+00
  0.00000000E+00  0.00000000E+00  0.00000000E+00
  0.00000000E+00  0.00000000E+00  0.00000000E+00
  0.00000000E+00  0.00000000E+00  0.00000000E+00
  0.00000000E+00  0.00000000E+00  0.00000000E+00
  0.00000000E+00  0.00000000E+00  0.00000000E+00
  0.00000000E+00  0.00000000E+00  0.00000000E+00
  0.00000000E+00  0.00000000E+00  0.00000000E+00
  0.00000000E+00  0.00000000E+00  0.00000000E+00
  0.00000000E+00  0.00000000E+00  0.00000000E+00
  0.00000000E+00  0.00000000E+00  0.00000000E+00
  0.00000000E+00  0.00000000E+00  0.00000000E+00
  0.00000000E+00  0.00000000E+00  0.00000000E+00
  0.00000000E+00  0.00000000E+00  0.00000000E+00
  0.00000000E+00  0.00000000E+00  0.00000000E+00
  0.00000000E+00  0.00000000E+00  0.00000000E+00
  0.00000000E+00  0.00000000E+00  0.00000000E+00
  0.00000000E+00  0.00000000E+00  0.00000000E+00
  0.00000000E+00  0.00000000E+00  0.00000000E+00
  0.00000000E+00  0.00000000E+00  0.00000000E+00
  0.00000000E+00  0.00000000E+00  0.00000000E+00
  0.00000000E+00  0.00000000E+00  0.00000000E+00
  0.00000000E+00  0.00000000E+00  0.00000000E+00
  0.00000000E+00  0.00000000E+00  0.00000000E+00
  0.00000000E+00  0.00000000E+00  0.00000000E+00
  0.00000000E+00  0.00000000E+00  0.00000000E+00
  0.00000000E+00  0.00000000E+00  0.00000000E+00
  0.00000000E+00  0.00000000E+00  0.00000000E+00
  0.00000000E+00  0.00000000E+00  0.00000000E+00
  0.00000000E+00  0.00000000E+00  0.00000000E+00
  0.00000000E+00  0.00000000E+00  0.00000000E+00
  0.00000000E+00  0.00000000E+00  0.00000000E+00
  0.00000000E+00  0.00000000E+00  0.00000000E+00
  0.00000000E+00  0.00000000E+00  0.00000000E+00
  0.00000000E+00  0.00000000E+00  0.00000000E+00
  0.00000000E+00  0.00000000E+00  0.00000000E+00
  0.00000000E+00  0.00000000E+00  0.00000000E+00
  0.00000000E+00  0.00000000E+00  0.00000000E+00
  0.00000000E+00  0.00000000E+00  0.00000000E+00
  0.00000000E+00  0.00000000E+00  0.00000000E+00
  0.00000000E+00  0.00000000E+00  0.00000000E+00
  0.00000000E+00  0.00000000E+00  0.00000000E+00
  0.00000000E+00  0.00000000E+00  0.00000000E+00
  0.00000000E+00  0.00000000E+00  0.00000000E+00
  0.00000000E+00  0.00000000E+00  0.00000000E+00
  0.00000000E+00  0.00000000E+00  0.00000000E+00
  0.00000000E+00  0.00000000E+00  0.00000000E+00
  0.00000000E+00  0.00000000E+00  0.00000000E+00
  0.00000000E+00  0.00000000E+00  0.00000000E+00
  0.00000000E+00  0.00000000E+00  0.00000000E+00
  0.00000000E+00  0.00000000E+00  0.00000000E+00
  0.00000000E+00  0.00000000E+00  0.00000000E+00
  0.00000000E+00  0.00000000E+00  0.00000000E+00
  0.00000000E+00  0.00000000E+00  0.00000000E+00
  0.00000000E+00  0.00000000E+00  0.00000000E+00
  0.00000000E+00  0.00000000E+00  0.00000000E+00
  0.00000000E+00  0.00000000E+00  0.00000000E+00
  0.00000000E+00  0.00000000E+00  0.00000000E+00
  0.00000000E+00  0.00000000E+00  0.00000000E+00
  0.00000000E+00  0.00000000E+00  0.00000000E+00
