Ga2 N2
1.0
        3.2162899971         0.0000000000         0.0000000000
       -1.6081449986         2.7853888434         0.0000000000
        0.0000000000         0.0000000000         5.2399621010
   Ga    N
    2    2
Cartesian
     0.000000000         1.856925951         5.235350919
     1.608145046         0.928462975         2.615369868
     0.000000000         1.856925951         1.969596970
     1.608145046         0.928462975         4.589578021
