Cubic_cell                              
   1.00000000000000     
    16.4039999999999999    0.0000000000000000    0.0000000000000000
     0.0000000000000000   15.3313769999999998    0.0000000000000000
     0.0000000000000000    0.2701040000000000   15.3289980000000003
   Zn   Ge   P 
    48    48    96
Direct
  0.9999990000000025  0.9998799999999974  0.2501200000000026
  0.0000000000000000  0.0000000000000000  0.0000000000000000
  0.1666659999999993  0.6248790000000000  0.3751200000000026
  0.1666659999999993  0.8751200000000026  0.3748790000000000
  0.0000000000000000  0.4998799999999974  0.7501189999999980
  0.0000000000000000  0.5001189999999980  0.4998799999999974
  0.1666650000000018  0.1248780000000025  0.8751200000000026
  0.1666650000000018  0.3751200000000026  0.8748790000000000
  0.9999990000000025  0.2498799999999974  0.5001189999999980
  0.9999990000000025  0.2501180000000005  0.2498799999999974
  0.1666659999999993  0.8748790000000000  0.6251200000000026
  0.1666659999999993  0.1251200000000026  0.6248790000000000
  0.0000000000000000  0.7498790000000000  0.0001189999999980
  0.0000000000000000  0.7501189999999980  0.7498799999999974
  0.1666659999999993  0.3748790000000000  0.1251200000000026
  0.1666659999999993  0.6251189999999980  0.1248790000000000
  0.3333330000000032  0.9998799999999974  0.2501180000000005
  0.3333319999999986  0.0001189999999980  0.9998799999999974
  0.5000000000000000  0.6248790000000000  0.3751200000000026
  0.5000000000000000  0.8751200000000026  0.3748790000000000
  0.3333319999999986  0.4998799999999974  0.7501189999999980
  0.3333319999999986  0.5001189999999980  0.4998799999999974
  0.5000000000000000  0.1248790000000000  0.8751200000000026
  0.5000000000000000  0.3751200000000026  0.8748790000000000
  0.3333319999999986  0.2498799999999974  0.5001189999999980
  0.3333330000000032  0.2501200000000026  0.2498799999999974
  0.4999990000000025  0.8748790000000000  0.6251200000000026
  0.4999990000000025  0.1251200000000026  0.6248790000000000
  0.3333319999999986  0.7498799999999974  0.0001189999999980
  0.3333319999999986  0.7501200000000026  0.7498799999999974
  0.5000000000000000  0.3748790000000000  0.1251200000000026
  0.4999990000000025  0.6251189999999980  0.1248790000000000
  0.6666659999999993  0.9998799999999974  0.2501180000000005
  0.6666659999999993  0.0001189999999980  0.9998799999999974
  0.8333319999999986  0.6248790000000000  0.3751200000000026
  0.8333319999999986  0.8751200000000026  0.3748790000000000
  0.6666659999999993  0.4998799999999974  0.7501189999999980
  0.6666659999999993  0.5001189999999980  0.4998799999999974
  0.8333330000000032  0.1248790000000000  0.8751210000000000
  0.8333319999999986  0.3751200000000026  0.8748790000000000
  0.6666659999999993  0.2498799999999974  0.5001189999999980
  0.6666659999999993  0.2501180000000005  0.2498790000000000
  0.8333319999999986  0.8748790000000000  0.6251200000000026
  0.8333330000000032  0.1251200000000026  0.6248790000000000
  0.6666650000000018  0.7498799999999974  0.0001189999999980
  0.6666650000000018  0.7501189999999980  0.7498790000000000
  0.8333319999999986  0.3748790000000000  0.1251200000000026
  0.8333319999999986  0.6251189999999980  0.1248790000000000
  0.1666669999999968  0.8751000000000033  0.1248980000000017
  0.1666659999999993  0.1248999999999967  0.1250989999999987
  0.9999990000000025  0.7501019999999983  0.4998969999999971
  0.0000000000000000  0.7498969999999971  0.2501019999999983
  0.1666659999999993  0.3751010000000008  0.6248980000000017
  0.1666659999999993  0.6248980000000017  0.6251019999999983
  0.9999990000000025  0.2500989999999987  0.9998969999999971
  0.0000000000000000  0.2498969999999971  0.7501019999999983
  0.1666650000000018  0.1251000000000033  0.3748980000000017
  0.1666659999999993  0.3748980000000017  0.3751019999999983
  0.0000000000000000  0.0001019999999983  0.7498989999999992
  0.0000000000000000  0.9998969999999971  0.5001019999999983
  0.1666650000000018  0.6251010000000008  0.8748980000000017
  0.1666650000000018  0.8748999999999967  0.8750989999999987
  0.0000000000000000  0.5001019999999983  0.2498969999999971
  0.9999990000000025  0.4998969999999971  0.0001019999999983
  0.5000000000000000  0.8751010000000008  0.1248980000000017
  0.5000000000000000  0.1248969999999971  0.1251010000000008
  0.3333319999999986  0.7501019999999983  0.4998969999999971
  0.3333330000000032  0.7498969999999971  0.2501019999999983
  0.5000000000000000  0.3751010000000008  0.6248980000000017
  0.4999990000000025  0.6248980000000017  0.6251010000000008
  0.3333319999999986  0.2501010000000008  0.9998969999999971
  0.3333319999999986  0.2498969999999971  0.7501019999999983
  0.5000000000000000  0.1251000000000033  0.3748980000000017
  0.5000000000000000  0.3748980000000017  0.3751010000000008
  0.3333319999999986  0.0001019999999983  0.7498969999999971
  0.3333330000000032  0.9998969999999971  0.5001019999999983
  0.4999990000000025  0.6251010000000008  0.8748980000000017
  0.4999990000000025  0.8748969999999971  0.8751019999999983
  0.3333330000000032  0.5001019999999983  0.2498969999999971
  0.3333319999999986  0.4998969999999971  0.0001019999999983
  0.8333310000000012  0.8751010000000008  0.1248989999999992
  0.8333330000000032  0.1248999999999967  0.1250980000000013
  0.6666650000000018  0.7501019999999983  0.4998969999999971
  0.6666650000000018  0.7498969999999971  0.2501019999999983
  0.8333319999999986  0.3751010000000008  0.6248980000000017
  0.8333319999999986  0.6248969999999971  0.6251010000000008
  0.6666659999999993  0.2501010000000008  0.9998969999999971
  0.6666659999999993  0.2498969999999971  0.7501019999999983
  0.8333330000000032  0.1251000000000033  0.3748980000000017
  0.8333319999999986  0.3748969999999971  0.3751010000000008
  0.6666659999999993  0.0001019999999983  0.7498969999999971
  0.6666659999999993  0.9998969999999971  0.5001019999999983
  0.8333330000000032  0.6251010000000008  0.8748980000000017
  0.8333319999999986  0.8748989999999992  0.8750989999999987
  0.6666659999999993  0.5001019999999983  0.2498969999999971
  0.6666650000000018  0.4998969999999971  0.0001019999999983
  0.0833330000000032  0.0011950000000027  0.3761939999999981
  0.2486159999999984  0.1249990000000025  0.2499990000000025
  0.0847240000000014  0.9999970000000005  0.1250140000000002
  0.2499990000000025  0.8738039999999998  0.2488030000000023
  0.2500000000000000  0.6261939999999981  0.5011939999999981
  0.0819499999999991  0.7500000000000000  0.3750000000000000
  0.2513810000000021  0.8749990000000025  0.4999990000000025
  0.0833319999999986  0.7488030000000023  0.6238039999999998
  0.0833319999999986  0.5011939999999981  0.8761939999999981
  0.2486159999999984  0.6250000000000000  0.7500000000000000
  0.0847150000000028  0.4999990000000025  0.6250000000000000
  0.2499990000000025  0.3738039999999998  0.7488030000000023
  0.2499990000000025  0.1261939999999981  0.0011950000000027
  0.0819509999999966  0.2499990000000025  0.8750000000000000
  0.2513810000000021  0.3749990000000025  0.9999990000000025
  0.0833319999999986  0.2488030000000023  0.1238039999999998
  0.0833319999999986  0.2511950000000027  0.6261939999999981
  0.2486159999999984  0.3750000000000000  0.5000000000000000
  0.0847150000000028  0.2499990000000025  0.3750000000000000
  0.2499990000000025  0.1238039999999998  0.4988030000000023
  0.2500000000000000  0.8761930000000007  0.7511950000000027
  0.0819499999999991  0.0000000000000000  0.6249990000000025
  0.2513810000000021  0.1250000000000000  0.7499990000000025
  0.0833239999999975  0.9988010000000003  0.8738189999999975
  0.0833319999999986  0.7511950000000027  0.1261939999999981
  0.2486159999999984  0.8750000000000000  0.0000000000000000
  0.0847150000000028  0.7499990000000025  0.8749990000000025
  0.2499990000000025  0.6238039999999998  0.9988030000000023
  0.2500000000000000  0.3761939999999981  0.2511950000000027
  0.0819499999999991  0.4999990000000025  0.1250000000000000
  0.2513810000000021  0.6250000000000000  0.2499990000000025
  0.0833319999999986  0.4988030000000023  0.3738039999999998
  0.4166659999999993  0.0011950000000027  0.3761939999999981
  0.5819490000000016  0.1250000000000000  0.2500000000000000
  0.4180479999999989  0.9999990000000025  0.1249990000000025
  0.5833319999999986  0.8738039999999998  0.2488030000000023
  0.5833330000000032  0.6261939999999981  0.5011939999999981
  0.4152830000000023  0.7500000000000000  0.3749990000000025
  0.5847150000000028  0.8749990000000025  0.4999990000000025
  0.4166659999999993  0.7488030000000023  0.6238039999999998
  0.4166659999999993  0.5011939999999981  0.8761939999999981
  0.5819499999999991  0.6250000000000000  0.7500000000000000
  0.4180490000000034  0.5000000000000000  0.6249990000000025
  0.5833319999999986  0.3738039999999998  0.7488030000000023
  0.5833319999999986  0.1261939999999981  0.0011950000000027
  0.4152839999999998  0.2499990000000025  0.8750000000000000
  0.5847139999999982  0.3749990000000025  0.9999990000000025
  0.4166659999999993  0.2488030000000023  0.1238039999999998
  0.4166659999999993  0.2511950000000027  0.6261939999999981
  0.5819490000000016  0.3750000000000000  0.4999990000000025
  0.4180479999999989  0.2499990000000025  0.3749990000000025
  0.5833319999999986  0.1238039999999998  0.4988030000000023
  0.5833319999999986  0.8761939999999981  0.7511950000000027
  0.4152839999999998  0.0000000000000000  0.6249990000000025
  0.5847139999999982  0.1249990000000025  0.7499990000000025
  0.4166659999999993  0.9988030000000023  0.8738039999999998
  0.4166659999999993  0.7511950000000027  0.1261939999999981
  0.5819499999999991  0.8750000000000000  0.0000000000000000
  0.4180490000000034  0.7499990000000025  0.8749990000000025
  0.5833319999999986  0.6238039999999998  0.9988030000000023
  0.5833319999999986  0.3761939999999981  0.2511950000000027
  0.4152830000000023  0.4999990000000025  0.1250000000000000
  0.5847150000000028  0.6250000000000000  0.2499990000000025
  0.4166650000000018  0.4988030000000023  0.3738039999999998
  0.7500000000000000  0.0011950000000027  0.3761939999999981
  0.9152830000000023  0.1250000000000000  0.2500000000000000
  0.7513819999999996  0.9999990000000025  0.1249990000000025
  0.9166659999999993  0.8738039999999998  0.2488030000000023
  0.9166659999999993  0.6261939999999981  0.5011939999999981
  0.7486170000000030  0.7500000000000000  0.3749990000000025
  0.9180479999999989  0.8749990000000025  0.4999990000000025
  0.7499990000000025  0.7488030000000023  0.6238039999999998
  0.7500000000000000  0.5011939999999981  0.8761939999999981
  0.9152830000000023  0.6249990000000025  0.7500000000000000
  0.7513819999999996  0.4999990000000025  0.6249990000000025
  0.9166659999999993  0.3738039999999998  0.7488030000000023
  0.9166740000000004  0.1261790000000005  0.0011969999999977
  0.7486170000000030  0.2499990000000025  0.8749990000000025
  0.9180479999999989  0.3749990000000025  0.9999990000000025
  0.7499979999999979  0.2488030000000023  0.1238049999999973
  0.7500000000000000  0.2511950000000027  0.6261939999999981
  0.9152830000000023  0.3749990000000025  0.5000000000000000
  0.7513819999999996  0.2499990000000025  0.3749990000000025
  0.9166659999999993  0.1238039999999998  0.4988030000000023
  0.9166659999999993  0.8761939999999981  0.7511950000000027
  0.7486170000000030  0.0000000000000000  0.6249990000000025
  0.9180470000000014  0.1249990000000025  0.7499990000000025
  0.7500000000000000  0.9988030000000023  0.8738039999999998
  0.7500000000000000  0.7511950000000027  0.1261939999999981
  0.9152739999999966  0.8749839999999978  0.0000000000000000
  0.7513819999999996  0.7500000000000000  0.8750000000000000
  0.9166650000000018  0.6238039999999998  0.9988030000000023
  0.9166659999999993  0.3761939999999981  0.2511950000000027
  0.7486170000000030  0.4999990000000025  0.1250000000000000
  0.9180479999999989  0.6249990000000025  0.2499990000000025
  0.7499990000000025  0.4988030000000023  0.3738039999999998
 
  0.00000000E+00  0.00000000E+00  0.00000000E+00
  0.00000000E+00  0.00000000E+00  0.00000000E+00
  0.00000000E+00  0.00000000E+00  0.00000000E+00
  0.00000000E+00  0.00000000E+00  0.00000000E+00
  0.00000000E+00  0.00000000E+00  0.00000000E+00
  0.00000000E+00  0.00000000E+00  0.00000000E+00
  0.00000000E+00  0.00000000E+00  0.00000000E+00
  0.00000000E+00  0.00000000E+00  0.00000000E+00
  0.00000000E+00  0.00000000E+00  0.00000000E+00
  0.00000000E+00  0.00000000E+00  0.00000000E+00
  0.00000000E+00  0.00000000E+00  0.00000000E+00
  0.00000000E+00  0.00000000E+00  0.00000000E+00
  0.00000000E+00  0.00000000E+00  0.00000000E+00
  0.00000000E+00  0.00000000E+00  0.00000000E+00
  0.00000000E+00  0.00000000E+00  0.00000000E+00
  0.00000000E+00  0.00000000E+00  0.00000000E+00
  0.00000000E+00  0.00000000E+00  0.00000000E+00
  0.00000000E+00  0.00000000E+00  0.00000000E+00
  0.00000000E+00  0.00000000E+00  0.00000000E+00
  0.00000000E+00  0.00000000E+00  0.00000000E+00
  0.00000000E+00  0.00000000E+00  0.00000000E+00
  0.00000000E+00  0.00000000E+00  0.00000000E+00
  0.00000000E+00  0.00000000E+00  0.00000000E+00
  0.00000000E+00  0.00000000E+00  0.00000000E+00
  0.00000000E+00  0.00000000E+00  0.00000000E+00
  0.00000000E+00  0.00000000E+00  0.00000000E+00
  0.00000000E+00  0.00000000E+00  0.00000000E+00
  0.00000000E+00  0.00000000E+00  0.00000000E+00
  0.00000000E+00  0.00000000E+00  0.00000000E+00
  0.00000000E+00  0.00000000E+00  0.00000000E+00
  0.00000000E+00  0.00000000E+00  0.00000000E+00
  0.00000000E+00  0.00000000E+00  0.00000000E+00
  0.00000000E+00  0.00000000E+00  0.00000000E+00
  0.00000000E+00  0.00000000E+00  0.00000000E+00
  0.00000000E+00  0.00000000E+00  0.00000000E+00
  0.00000000E+00  0.00000000E+00  0.00000000E+00
  0.00000000E+00  0.00000000E+00  0.00000000E+00
  0.00000000E+00  0.00000000E+00  0.00000000E+00
  0.00000000E+00  0.00000000E+00  0.00000000E+00
  0.00000000E+00  0.00000000E+00  0.00000000E+00
  0.00000000E+00  0.00000000E+00  0.00000000E+00
  0.00000000E+00  0.00000000E+00  0.00000000E+00
  0.00000000E+00  0.00000000E+00  0.00000000E+00
  0.00000000E+00  0.00000000E+00  0.00000000E+00
  0.00000000E+00  0.00000000E+00  0.00000000E+00
  0.00000000E+00  0.00000000E+00  0.00000000E+00
  0.00000000E+00  0.00000000E+00  0.00000000E+00
  0.00000000E+00  0.00000000E+00  0.00000000E+00
  0.00000000E+00  0.00000000E+00  0.00000000E+00
  0.00000000E+00  0.00000000E+00  0.00000000E+00
  0.00000000E+00  0.00000000E+00  0.00000000E+00
  0.00000000E+00  0.00000000E+00  0.00000000E+00
  0.00000000E+00  0.00000000E+00  0.00000000E+00
  0.00000000E+00  0.00000000E+00  0.00000000E+00
  0.00000000E+00  0.00000000E+00  0.00000000E+00
  0.00000000E+00  0.00000000E+00  0.00000000E+00
  0.00000000E+00  0.00000000E+00  0.00000000E+00
  0.00000000E+00  0.00000000E+00  0.00000000E+00
  0.00000000E+00  0.00000000E+00  0.00000000E+00
  0.00000000E+00  0.00000000E+00  0.00000000E+00
  0.00000000E+00  0.00000000E+00  0.00000000E+00
  0.00000000E+00  0.00000000E+00  0.00000000E+00
  0.00000000E+00  0.00000000E+00  0.00000000E+00
  0.00000000E+00  0.00000000E+00  0.00000000E+00
  0.00000000E+00  0.00000000E+00  0.00000000E+00
  0.00000000E+00  0.00000000E+00  0.00000000E+00
  0.00000000E+00  0.00000000E+00  0.00000000E+00
  0.00000000E+00  0.00000000E+00  0.00000000E+00
  0.00000000E+00  0.00000000E+00  0.00000000E+00
  0.00000000E+00  0.00000000E+00  0.00000000E+00
  0.00000000E+00  0.00000000E+00  0.00000000E+00
  0.00000000E+00  0.00000000E+00  0.00000000E+00
  0.00000000E+00  0.00000000E+00  0.00000000E+00
  0.00000000E+00  0.00000000E+00  0.00000000E+00
  0.00000000E+00  0.00000000E+00  0.00000000E+00
  0.00000000E+00  0.00000000E+00  0.00000000E+00
  0.00000000E+00  0.00000000E+00  0.00000000E+00
  0.00000000E+00  0.00000000E+00  0.00000000E+00
  0.00000000E+00  0.00000000E+00  0.00000000E+00
  0.00000000E+00  0.00000000E+00  0.00000000E+00
  0.00000000E+00  0.00000000E+00  0.00000000E+00
  0.00000000E+00  0.00000000E+00  0.00000000E+00
  0.00000000E+00  0.00000000E+00  0.00000000E+00
  0.00000000E+00  0.00000000E+00  0.00000000E+00
  0.00000000E+00  0.00000000E+00  0.00000000E+00
  0.00000000E+00  0.00000000E+00  0.00000000E+00
  0.00000000E+00  0.00000000E+00  0.00000000E+00
  0.00000000E+00  0.00000000E+00  0.00000000E+00
  0.00000000E+00  0.00000000E+00  0.00000000E+00
  0.00000000E+00  0.00000000E+00  0.00000000E+00
  0.00000000E+00  0.00000000E+00  0.00000000E+00
  0.00000000E+00  0.00000000E+00  0.00000000E+00
  0.00000000E+00  0.00000000E+00  0.00000000E+00
  0.00000000E+00  0.00000000E+00  0.00000000E+00
  0.00000000E+00  0.00000000E+00  0.00000000E+00
  0.00000000E+00  0.00000000E+00  0.00000000E+00
  0.00000000E+00  0.00000000E+00  0.00000000E+00
  0.00000000E+00  0.00000000E+00  0.00000000E+00
  0.00000000E+00  0.00000000E+00  0.00000000E+00
  0.00000000E+00  0.00000000E+00  0.00000000E+00
  0.00000000E+00  0.00000000E+00  0.00000000E+00
  0.00000000E+00  0.00000000E+00  0.00000000E+00
  0.00000000E+00  0.00000000E+00  0.00000000E+00
  0.00000000E+00  0.00000000E+00  0.00000000E+00
  0.00000000E+00  0.00000000E+00  0.00000000E+00
  0.00000000E+00  0.00000000E+00  0.00000000E+00
  0.00000000E+00  0.00000000E+00  0.00000000E+00
  0.00000000E+00  0.00000000E+00  0.00000000E+00
  0.00000000E+00  0.00000000E+00  0.00000000E+00
  0.00000000E+00  0.00000000E+00  0.00000000E+00
  0.00000000E+00  0.00000000E+00  0.00000000E+00
  0.00000000E+00  0.00000000E+00  0.00000000E+00
  0.00000000E+00  0.00000000E+00  0.00000000E+00
  0.00000000E+00  0.00000000E+00  0.00000000E+00
  0.00000000E+00  0.00000000E+00  0.00000000E+00
  0.00000000E+00  0.00000000E+00  0.00000000E+00
  0.00000000E+00  0.00000000E+00  0.00000000E+00
  0.00000000E+00  0.00000000E+00  0.00000000E+00
  0.00000000E+00  0.00000000E+00  0.00000000E+00
  0.00000000E+00  0.00000000E+00  0.00000000E+00
  0.00000000E+00  0.00000000E+00  0.00000000E+00
  0.00000000E+00  0.00000000E+00  0.00000000E+00
  0.00000000E+00  0.00000000E+00  0.00000000E+00
  0.00000000E+00  0.00000000E+00  0.00000000E+00
  0.00000000E+00  0.00000000E+00  0.00000000E+00
  0.00000000E+00  0.00000000E+00  0.00000000E+00
  0.00000000E+00  0.00000000E+00  0.00000000E+00
  0.00000000E+00  0.00000000E+00  0.00000000E+00
  0.00000000E+00  0.00000000E+00  0.00000000E+00
  0.00000000E+00  0.00000000E+00  0.00000000E+00
  0.00000000E+00  0.00000000E+00  0.00000000E+00
  0.00000000E+00  0.00000000E+00  0.00000000E+00
  0.00000000E+00  0.00000000E+00  0.00000000E+00
  0.00000000E+00  0.00000000E+00  0.00000000E+00
  0.00000000E+00  0.00000000E+00  0.00000000E+00
  0.00000000E+00  0.00000000E+00  0.00000000E+00
  0.00000000E+00  0.00000000E+00  0.00000000E+00
  0.00000000E+00  0.00000000E+00  0.00000000E+00
  0.00000000E+00  0.00000000E+00  0.00000000E+00
  0.00000000E+00  0.00000000E+00  0.00000000E+00
  0.00000000E+00  0.00000000E+00  0.00000000E+00
  0.00000000E+00  0.00000000E+00  0.00000000E+00
  0.00000000E+00  0.00000000E+00  0.00000000E+00
  0.00000000E+00  0.00000000E+00  0.00000000E+00
  0.00000000E+00  0.00000000E+00  0.00000000E+00
  0.00000000E+00  0.00000000E+00  0.00000000E+00
  0.00000000E+00  0.00000000E+00  0.00000000E+00
  0.00000000E+00  0.00000000E+00  0.00000000E+00
  0.00000000E+00  0.00000000E+00  0.00000000E+00
  0.00000000E+00  0.00000000E+00  0.00000000E+00
  0.00000000E+00  0.00000000E+00  0.00000000E+00
  0.00000000E+00  0.00000000E+00  0.00000000E+00
  0.00000000E+00  0.00000000E+00  0.00000000E+00
  0.00000000E+00  0.00000000E+00  0.00000000E+00
  0.00000000E+00  0.00000000E+00  0.00000000E+00
  0.00000000E+00  0.00000000E+00  0.00000000E+00
  0.00000000E+00  0.00000000E+00  0.00000000E+00
  0.00000000E+00  0.00000000E+00  0.00000000E+00
  0.00000000E+00  0.00000000E+00  0.00000000E+00
  0.00000000E+00  0.00000000E+00  0.00000000E+00
  0.00000000E+00  0.00000000E+00  0.00000000E+00
  0.00000000E+00  0.00000000E+00  0.00000000E+00
  0.00000000E+00  0.00000000E+00  0.00000000E+00
  0.00000000E+00  0.00000000E+00  0.00000000E+00
  0.00000000E+00  0.00000000E+00  0.00000000E+00
  0.00000000E+00  0.00000000E+00  0.00000000E+00
  0.00000000E+00  0.00000000E+00  0.00000000E+00
  0.00000000E+00  0.00000000E+00  0.00000000E+00
  0.00000000E+00  0.00000000E+00  0.00000000E+00
  0.00000000E+00  0.00000000E+00  0.00000000E+00
  0.00000000E+00  0.00000000E+00  0.00000000E+00
  0.00000000E+00  0.00000000E+00  0.00000000E+00
  0.00000000E+00  0.00000000E+00  0.00000000E+00
  0.00000000E+00  0.00000000E+00  0.00000000E+00
  0.00000000E+00  0.00000000E+00  0.00000000E+00
  0.00000000E+00  0.00000000E+00  0.00000000E+00
  0.00000000E+00  0.00000000E+00  0.00000000E+00
  0.00000000E+00  0.00000000E+00  0.00000000E+00
  0.00000000E+00  0.00000000E+00  0.00000000E+00
  0.00000000E+00  0.00000000E+00  0.00000000E+00
  0.00000000E+00  0.00000000E+00  0.00000000E+00
  0.00000000E+00  0.00000000E+00  0.00000000E+00
  0.00000000E+00  0.00000000E+00  0.00000000E+00
  0.00000000E+00  0.00000000E+00  0.00000000E+00
  0.00000000E+00  0.00000000E+00  0.00000000E+00
  0.00000000E+00  0.00000000E+00  0.00000000E+00
  0.00000000E+00  0.00000000E+00  0.00000000E+00
  0.00000000E+00  0.00000000E+00  0.00000000E+00
  0.00000000E+00  0.00000000E+00  0.00000000E+00
  0.00000000E+00  0.00000000E+00  0.00000000E+00
  0.00000000E+00  0.00000000E+00  0.00000000E+00
  0.00000000E+00  0.00000000E+00  0.00000000E+00
