Cubic_cell
1.0
16.404000 0.000000 0.000000
0.000000 15.331377 0.000000
0.000000 0.270104 15.328998
Zn Ge P
48 48 96
Direct
0.999999 0.999880 0.250120
0.000000 0.000000 0.000000
0.166666 0.624879 0.375120
0.166666 0.875120 0.374879
0.000000 0.499880 0.750119
0.000000 0.500119 0.499880
0.166665 0.124878 0.875120
0.166665 0.375120 0.874879
0.999999 0.249880 0.500119
0.999999 0.250118 0.249880
0.166666 0.874879 0.625120
0.166666 0.125120 0.624879
0.000000 0.749879 0.000119
0.000000 0.750119 0.749880
0.166666 0.374879 0.125120
0.166666 0.625119 0.124879
0.333333 0.999880 0.250118
0.333332 0.000119 0.999880
0.500000 0.624879 0.375120
0.500000 0.875120 0.374879
0.333332 0.499880 0.750119
0.333332 0.500119 0.499880
0.500000 0.124879 0.875120
0.500000 0.375120 0.874879
0.333332 0.249880 0.500119
0.333333 0.250120 0.249880
0.499999 0.874879 0.625120
0.499999 0.125120 0.624879
0.333332 0.749880 0.000119
0.333332 0.750120 0.749880
0.500000 0.374879 0.125120
0.499999 0.625119 0.124879
0.666666 0.999880 0.250118
0.666666 0.000119 0.999880
0.833332 0.624879 0.375120
0.833332 0.875120 0.374879
0.666666 0.499880 0.750119
0.666666 0.500119 0.499880
0.833333 0.124879 0.875121
0.833332 0.375120 0.874879
0.666666 0.249880 0.500119
0.666666 0.250118 0.249879
0.833332 0.874879 0.625120
0.833333 0.125120 0.624879
0.666665 0.749880 0.000119
0.666665 0.750119 0.749879
0.833332 0.374879 0.125120
0.833332 0.625119 0.124879
0.166667 0.875100 0.124898
0.166666 0.124900 0.125099
0.999999 0.750102 0.499897
0.000000 0.749897 0.250102
0.166666 0.375101 0.624898
0.166666 0.624898 0.625102
0.999999 0.250099 0.999897
0.000000 0.249897 0.750102
0.166665 0.125100 0.374898
0.166666 0.374898 0.375102
0.000000 0.000102 0.749899
0.000000 0.999897 0.500102
0.166665 0.625101 0.874898
0.166665 0.874900 0.875099
0.000000 0.500102 0.249897
0.999999 0.499897 0.000102
0.500000 0.875101 0.124898
0.500000 0.124897 0.125101
0.333332 0.750102 0.499897
0.333333 0.749897 0.250102
0.500000 0.375101 0.624898
0.499999 0.624898 0.625101
0.333332 0.250101 0.999897
0.333332 0.249897 0.750102
0.500000 0.125100 0.374898
0.500000 0.374898 0.375101
0.333332 0.000102 0.749897
0.333333 0.999897 0.500102
0.499999 0.625101 0.874898
0.499999 0.874897 0.875102
0.333333 0.500102 0.249897
0.333332 0.499897 0.000102
0.833331 0.875101 0.124899
0.833333 0.124900 0.125098
0.666665 0.750102 0.499897
0.666665 0.749897 0.250102
0.833332 0.375101 0.624898
0.833332 0.624897 0.625101
0.666666 0.250101 0.999897
0.666666 0.249897 0.750102
0.833333 0.125100 0.374898
0.833332 0.374897 0.375101
0.666666 0.000102 0.749897
0.666666 0.999897 0.500102
0.833333 0.625101 0.874898
0.833332 0.874899 0.875099
0.666666 0.500102 0.249897
0.666665 0.499897 0.000102
0.083333 0.001195 0.376194
0.248616 0.124999 0.249999
0.084724 0.999997 0.125014
0.249999 0.873804 0.248803
0.250000 0.626194 0.501194
0.081950 0.750000 0.375000
0.251381 0.874999 0.499999
0.083332 0.748803 0.623804
0.083332 0.501194 0.876194
0.248616 0.625000 0.750000
0.084715 0.499999 0.625000
0.249999 0.373804 0.748803
0.249999 0.126194 0.001195
0.081951 0.249999 0.875000
0.251381 0.374999 0.999999
0.083332 0.248803 0.123804
0.083332 0.251195 0.626194
0.248616 0.375000 0.500000
0.084715 0.249999 0.375000
0.249999 0.123804 0.498803
0.250000 0.876193 0.751195
0.081950 0.000000 0.624999
0.251381 0.125000 0.749999
0.083324 0.998801 0.873819
0.083332 0.751195 0.126194
0.248616 0.875000 0.000000
0.084715 0.749999 0.874999
0.249999 0.623804 0.998803
0.250000 0.376194 0.251195
0.081950 0.499999 0.125000
0.251381 0.625000 0.249999
0.083332 0.498803 0.373804
0.416666 0.001195 0.376194
0.581949 0.125000 0.250000
0.418048 0.999999 0.124999
0.583332 0.873804 0.248803
0.583333 0.626194 0.501194
0.415283 0.750000 0.374999
0.584715 0.874999 0.499999
0.416666 0.748803 0.623804
0.416666 0.501194 0.876194
0.581950 0.625000 0.750000
0.418049 0.500000 0.624999
0.583332 0.373804 0.748803
0.583332 0.126194 0.001195
0.415284 0.249999 0.875000
0.584714 0.374999 0.999999
0.416666 0.248803 0.123804
0.416666 0.251195 0.626194
0.581949 0.375000 0.499999
0.418048 0.249999 0.374999
0.583332 0.123804 0.498803
0.583332 0.876194 0.751195
0.415284 0.000000 0.624999
0.584714 0.124999 0.749999
0.416666 0.998803 0.873804
0.416666 0.751195 0.126194
0.581950 0.875000 0.000000
0.418049 0.749999 0.874999
0.583332 0.623804 0.998803
0.583332 0.376194 0.251195
0.415283 0.499999 0.125000
0.584715 0.625000 0.249999
0.416665 0.498803 0.373804
0.750000 0.001195 0.376194
0.915283 0.125000 0.250000
0.751382 0.999999 0.124999
0.916666 0.873804 0.248803
0.916666 0.626194 0.501194
0.748617 0.750000 0.374999
0.918048 0.874999 0.499999
0.749999 0.748803 0.623804
0.750000 0.501194 0.876194
0.915283 0.624999 0.750000
0.751382 0.499999 0.624999
0.916666 0.373804 0.748803
0.916674 0.126179 0.001197
0.748617 0.249999 0.874999
0.918048 0.374999 0.999999
0.749998 0.248803 0.123805
0.750000 0.251195 0.626194
0.915283 0.374999 0.500000
0.751382 0.249999 0.374999
0.916666 0.123804 0.498803
0.916666 0.876194 0.751195
0.748617 0.000000 0.624999
0.918047 0.124999 0.749999
0.750000 0.998803 0.873804
0.750000 0.751195 0.126194
0.915274 0.874984 0.000000
0.751382 0.750000 0.875000
0.916665 0.623804 0.998803
0.916666 0.376194 0.251195
0.748617 0.499999 0.125000
0.918048 0.624999 0.249999
0.749999 0.498803 0.373804
