Zn4 Ge4 P8
1.0
        5.468                0.0000000000         0.0000000000
        0.0000000000         5.468                0.0000000000
        0.0000000000         0.0000000000        10.745       
   Zn   Ge    P
    4    4    8
Direct
     0.000000000         0.500000000         0.250000000
     0.000000000         0.000000000         0.000000000
     0.500000000         0.000000000         0.750000000
     0.500000000         0.500000000         0.500000000
     0.500000000         0.000000000         0.250000000
     0.500000000         0.500000000         0.000000000
     0.000000000         0.500000000         0.750000000
     0.000000000         0.000000000         0.500000000
     0.250000000         0.754127026         0.375000000
     0.745872974         0.750000000         0.125000000
     0.254126996         0.250000000         0.125000000
     0.750000000         0.245873004         0.375000000
     0.750000000         0.254126996         0.875000000
     0.245873004         0.250000000         0.625000000
     0.754127026         0.750000000         0.625000000
     0.250000000         0.745872974         0.875000000
