Zn47Ge49P96                             
   1.00000000000000     
    16.4039999999999999    0.0000000000000000    0.0000000000000000
     0.0000000000000000   15.3313769999999998    0.0000000000000000
     0.0000000000000000    0.2701040000000000   15.3289980000000003
   Zn   Ge   P 
    47    49    96
Direct
  0.9976396761093511  0.0000764852868116  0.9974062551992802
  0.1672538403039141  0.6239433074153453  0.3753518467372672
  0.1677509848005769  0.8729732202665446  0.3737947707930758
  0.9999983439734166  0.4996890374532228  0.7503076475869292
  0.0002054637484008  0.5001585926720935  0.4999850836390962
  0.1666772133272616  0.1250170721933372  0.8748127929907810
  0.1668954924351738  0.3753825076647956  0.8748697312235336
  0.0000768591405347  0.2503283171318671  0.5009792932618851
  0.0023578866411214  0.2525896657020894  0.2499199281004820
  0.1666094951643089  0.8745239144536683  0.6251346591590021
  0.1663123743879638  0.1254000652384377  0.6248385270342069
  0.9999206041255491  0.7490174522973376  0.9996678332304185
  0.9997916542596741  0.7500115390687725  0.7498391325367777
  0.1672327789533981  0.3752721144738373  0.1252371043571543
  0.1671303672857789  0.6240969367917515  0.1246038952061141
  0.3343654326062975  0.9995443757762885  0.2499027943628178
  0.3336476725761770  0.0001850100362333  0.9996087955076405
  0.5002197538561717  0.6246653571730718  0.3751648904686178
  0.4999987076343118  0.8751379136672455  0.3748581728778859
  0.3334436433105097  0.4998323208472613  0.7503010133487962
  0.3336149674997486  0.5001536251027687  0.4998573844823611
  0.4998897626617662  0.1247140946467482  0.8751581569541997
  0.4999988554392445  0.3752671101582479  0.8747288833885705
  0.3332648311412072  0.2500058435156518  0.5002293496582126
  0.3339274276591411  0.2506791440745531  0.2497087712840056
  0.4997779482362148  0.8748327987794937  0.6253303796554093
  0.4996910026720229  0.1253285527360646  0.6249780831124596
  0.3340254167791059  0.7490356740533173  0.9998764563648450
  0.3332931822849474  0.7501914742633247  0.7496457869365045
  0.5001075571458529  0.3748376098025972  0.1252820866862905
  0.5003065318457658  0.6250178744069643  0.1246684297877110
  0.6656319491626235  0.0000947203624193  0.2504516065044129
  0.6660695014162670  0.0002881423220984  0.9993164707453630
  0.8333878809496369  0.6248616464686734  0.3754722766520189
  0.8322467669590665  0.8762023480052008  0.3770226933138332
  0.6665531363218804  0.4996959348378667  0.7501650738594918
  0.6667038468914441  0.5003508722504364  0.4998054901055582
  0.8327643525378647  0.1247597183586748  0.8747229753699060
  0.8331022054896380  0.3751269981239744  0.8746135515200848
  0.6659715883473112  0.2501209934720521  0.5009604420408280
  0.6663495251213831  0.2503881926264526  0.2498109219616893
  0.8327436079394630  0.8746449275901966  0.6260522879891965
  0.8328670290579794  0.1253927460430262  0.6258984627658464
  0.6667324269928017  0.7497677996294456  0.9999911880122170
  0.6663823987945463  0.7501398339334813  0.7498428336819742
  0.8333200490487869  0.3751839374464296  0.1249787193246021
  0.8336848596737454  0.6251579445991666  0.1245970666352605
  0.1686674336423195  0.8721573502663063  0.1244115904535121
  0.1680289945485427  0.1268226164635351  0.1248149357828225
  0.9999988535325173  0.7494784614184837  0.5005189765128222
  0.0017901294594012  0.7475589219980066  0.2504280747174406
  0.1667060297840521  0.3753701003129564  0.6251227673826989
  0.1667966709965540  0.6246321229668226  0.6252598866774335
  0.9999985924920693  0.2507398587311798  0.9992562206106612
  0.9997867998689784  0.2499895360539099  0.7502777058057575
  0.1678944464098748  0.1272444772429964  0.3741832828681098
  0.1671781621255590  0.3755578141809011  0.3754154491049846
  0.0002669354226512  0.0001065695483362  0.7505204419495328
  0.9982071947575193  0.9995696682482347  0.5024373013552719
  0.1667929518153102  0.6249149454206986  0.8747856464266093
  0.1665639614193566  0.8744987444887968  0.8750199088001054
  0.9997303140121474  0.4994752543774865  0.2498895580157026
  0.0002105698308199  0.4997183682161648  0.0000071658537024
  0.5000907529938274  0.8750171223533059  0.1247063094729484
  0.4999984736848617  0.1249743914157406  0.1250214796242801
  0.3333191104662987  0.7499958134983160  0.4996888333277880
  0.3340041171090675  0.7489897334478499  0.2500725215883079
  0.4998523948999321  0.3752564428867728  0.6249372682061889
  0.4999987819418408  0.6249182105797715  0.6250793504143459
  0.3336471880107226  0.2504002440993247  0.9996603173578791
  0.3332717400916252  0.2499242922571270  0.7501062577198212
  0.4999066444297284  0.1252899521645645  0.3749793970520230
  0.5000710349356297  0.3749307233214907  0.3751843374741526
  0.3331703394737886  0.0001587406102175  0.7497187204348634
  0.3333698759484420  0.9996785518643279  0.4999025296292459
  0.5001446750935372  0.6250594788147055  0.8747409617285271
  0.4999258633648580  0.8748124376336790  0.8750655091508150
  0.3336685378204152  0.5000101962050678  0.2498266257124229
  0.3335306771787359  0.4997758116313094  0.0001832545124145
  0.8321030408137275  0.8758133442469429  0.1227508207661998
  0.8319679847113406  0.1251816320753605  0.1231725482848489
  0.6666786439914034  0.7503074427837078  0.5000003263144990
  0.6666276817657675  0.7500940609092055  0.2503179939450106
  0.8332038599824330  0.3752109552672849  0.6250807693790392
  0.8332003369300978  0.6247367181945620  0.6253642831777952
  0.6663500170465042  0.2503359528419438  0.9995954458829672
  0.6664667522869578  0.2498128648034950  0.7502202023323221
  0.8313291515608796  0.1255856985007995  0.3778376231213869
  0.8334338054293511  0.3749768091940595  0.3754979144438266
  0.6663287977570675  0.0001700604830432  0.7499853334505886
  0.6659934187448115  0.9999244849430582  0.5010062602345471
  0.8332911932002887  0.6248739968802468  0.8746266651069590
  0.8328190023833386  0.8745815855670926  0.8744381930998770
  0.6668268294770598  0.5002771989122152  0.2498383651426934
  0.6667257933650390  0.4998904694638995  0.0000721076336347
  0.9999985998923435  0.0010456709636983  0.2489507381045186
  0.0846137794885706  0.0009981439191264  0.3791412930520366
  0.2494452103548284  0.1247126878433420  0.2496026460595857
  0.0872556673515561  0.9993282453659376  0.1197903988363649
  0.2509306963634614  0.8735615031900181  0.2484588924767621
  0.2501006129963557  0.6260331805097650  0.5013169854627222
  0.0822864798245462  0.7492983555274151  0.3756567880844983
  0.2509437567920969  0.8751571767019684  0.4997506320804916
  0.0834605506575699  0.7486232715630265  0.6240442231302623
  0.0834086975605643  0.5011055596255929  0.8761278383531845
  0.2487921169994465  0.6250138592981074  0.7500284383971803
  0.0845922814064863  0.5000249824939615  0.6251694201180840
  0.2500634804443536  0.3738595436597976  0.7489196616713656
  0.2501744251918794  0.1260755184940976  0.0006552296456519
  0.0821890321673706  0.2501320594805208  0.8748544172323207
  0.2514628599585649  0.3750110536263520  0.0000613154778151
  0.0834446414433998  0.2491773071823289  0.1232824041576848
  0.0833897593227988  0.2514039052102888  0.6265514634745841
  0.2487598966957236  0.3750676483293773  0.5003045330823426
  0.0847605705999257  0.2505650368595838  0.3756821710572638
  0.2497521318539668  0.1235080410633955  0.4987906260443609
  0.2498423331732482  0.8762502827006315  0.7510948913713520
  0.0821863306795123  0.9998089781462980  0.6252255518103524
  0.2512331794117912  0.1250129247504717  0.7497451586735053
  0.0838261749486122  0.9989099879300696  0.8747199326233357
  0.0833470211380174  0.7503061566336768  0.1257075884608341
  0.2495434729870851  0.8745793045944552  0.9992129252553141
  0.0846339796531126  0.7497366430207606  0.8749149925724353
  0.2501493917520037  0.6236803389656345  0.9986693500159944
  0.2501381797183342  0.3761243113177670  0.2513472770171106
  0.0818773235944974  0.4996225258786779  0.1250530821398854
  0.2513705283272429  0.6247274374706109  0.2499317536941774
  0.0832216347720589  0.4987167804431181  0.3738383417154481
  0.4167699111004310  0.0012137228745814  0.3761690161675659
  0.5817701675933122  0.1253558601753895  0.2500381516084289
  0.4182268799261806  0.9999578938689382  0.1246408830300538
  0.5832278638616302  0.8738277935802046  0.2487822761681073
  0.5834250415391011  0.6263651894315529  0.5010918678652772
  0.4155547349697102  0.7498757623907437  0.3749930638389927
  0.5844434995137959  0.8750036495412559  0.5001204955678205
  0.4165725870827828  0.7489055299308944  0.6236313672616376
  0.4167375773504673  0.5011897222926507  0.8762738962921546
  0.5820618959574091  0.6249024517123303  0.7498724196671063
  0.4179355438915877  0.5001253881604057  0.6250950335562777
  0.5832598797858495  0.3737223150313653  0.7488064525538149
  0.5832028709592691  0.1262815947956355  0.0011436902603137
  0.4154779067787970  0.2499601730482510  0.8747825700040508
  0.5845193886623719  0.3752137728215246  0.0000359719017951
  0.4167939427275726  0.2488524478459979  0.1237149385658682
  0.4164589376833305  0.2512266112548716  0.6261903977963996
  0.5818643905687040  0.3753069903538275  0.5000799664847477
  0.4179302857161176  0.2500463378207343  0.3751103543250736
  0.5830418733080549  0.1239297062793057  0.4989810729174522
  0.5832141891842610  0.8762056022538829  0.7511758476566186
  0.4151472661181899  0.0000316480200766  0.6248435160828762
  0.5844620153962694  0.1249806374266740  0.7500248571165358
  0.4166141342212910  0.9987671399507008  0.8735769300853633
  0.4169558186969553  0.7510151154328142  0.1260672884907663
  0.5820668460761169  0.8748864652529704  0.9999496432175334
  0.4181322215994712  0.7499169102022236  0.8746899357189477
  0.5835384996722439  0.6238060616567651  0.9987704411699667
  0.5833827824120590  0.3764193465561121  0.2512293863854111
  0.4155353408930011  0.4999711967364391  0.1250155473954209
  0.5848503149453776  0.6251530056423249  0.2499647881535623
  0.4167828717670474  0.4988202462071669  0.3737912363609155
  0.7490668336720034  0.0015377969386492  0.3764347555039507
  0.9127412809209758  0.1302061303896096  0.2506666601132892
  0.7505518096660992  0.0003939358713581  0.1252831996603518
  0.9153833852251338  0.8708547832633045  0.2489977709416635
  0.9165368853125742  0.6259530758165184  0.5013733606875590
  0.7490542422002306  0.7502454528075333  0.3748390875685175
  0.9177111184561326  0.8743407931557243  0.5006976258725473
  0.7498961821744885  0.7486794134915016  0.6239636006068068
  0.7499343708020305  0.5010768129809904  0.8761370819467516
  0.9154049723199336  0.6248272556033356  0.7499713357499758
  0.7512049803757890  0.4999680242867086  0.6249838474532652
  0.9165883056473305  0.3738686910230982  0.7488901250741975
  0.9165525654162821  0.1267137248757919  0.0008180338683061
  0.7485344878489926  0.2499351779917589  0.8749849303223272
  0.9178082178764981  0.3751419231300446  0.9998639537133442
  0.7498225713770807  0.2493409397436110  0.1239202972348039
  0.7498478521660488  0.2513272215904720  0.6263155642004179
  0.9153636929160101  0.3750820520539904  0.5002596159615464
  0.7504537843824082  0.2507846305243433  0.3754167374722428
  0.9166496778626083  0.1242896473498405  0.4996887191600266
  0.9167753374827399  0.8761582297350685  0.7512792639077759
  0.7486270914984487  0.0000647398279270  0.6252686448105891
  0.9181200883456455  0.1249434302325128  0.7503730261747776
  0.7498593532637372  0.9986496615700275  0.8738718188541981
  0.7502454830742380  0.7512060490530033  0.1264883465357016
  0.9152368499003529  0.8743144620864669  0.9994306546149971
  0.7512373100321241  0.7496924117833927  0.8749291400970876
  0.9166076408890547  0.6234450931939435  0.9985928744112016
  0.9161714009747044  0.3752761526452915  0.2510867113230972
  0.7487641985635491  0.5002508672235564  0.1249835756310702
  0.9178115118157848  0.6247710777373072  0.2501874376240352
  0.7501548303445276  0.4989016397101693  0.3737465034339280
 
  0.00000000E+00  0.00000000E+00  0.00000000E+00
  0.00000000E+00  0.00000000E+00  0.00000000E+00
  0.00000000E+00  0.00000000E+00  0.00000000E+00
  0.00000000E+00  0.00000000E+00  0.00000000E+00
  0.00000000E+00  0.00000000E+00  0.00000000E+00
  0.00000000E+00  0.00000000E+00  0.00000000E+00
  0.00000000E+00  0.00000000E+00  0.00000000E+00
  0.00000000E+00  0.00000000E+00  0.00000000E+00
  0.00000000E+00  0.00000000E+00  0.00000000E+00
  0.00000000E+00  0.00000000E+00  0.00000000E+00
  0.00000000E+00  0.00000000E+00  0.00000000E+00
  0.00000000E+00  0.00000000E+00  0.00000000E+00
  0.00000000E+00  0.00000000E+00  0.00000000E+00
  0.00000000E+00  0.00000000E+00  0.00000000E+00
  0.00000000E+00  0.00000000E+00  0.00000000E+00
  0.00000000E+00  0.00000000E+00  0.00000000E+00
  0.00000000E+00  0.00000000E+00  0.00000000E+00
  0.00000000E+00  0.00000000E+00  0.00000000E+00
  0.00000000E+00  0.00000000E+00  0.00000000E+00
  0.00000000E+00  0.00000000E+00  0.00000000E+00
  0.00000000E+00  0.00000000E+00  0.00000000E+00
  0.00000000E+00  0.00000000E+00  0.00000000E+00
  0.00000000E+00  0.00000000E+00  0.00000000E+00
  0.00000000E+00  0.00000000E+00  0.00000000E+00
  0.00000000E+00  0.00000000E+00  0.00000000E+00
  0.00000000E+00  0.00000000E+00  0.00000000E+00
  0.00000000E+00  0.00000000E+00  0.00000000E+00
  0.00000000E+00  0.00000000E+00  0.00000000E+00
  0.00000000E+00  0.00000000E+00  0.00000000E+00
  0.00000000E+00  0.00000000E+00  0.00000000E+00
  0.00000000E+00  0.00000000E+00  0.00000000E+00
  0.00000000E+00  0.00000000E+00  0.00000000E+00
  0.00000000E+00  0.00000000E+00  0.00000000E+00
  0.00000000E+00  0.00000000E+00  0.00000000E+00
  0.00000000E+00  0.00000000E+00  0.00000000E+00
  0.00000000E+00  0.00000000E+00  0.00000000E+00
  0.00000000E+00  0.00000000E+00  0.00000000E+00
  0.00000000E+00  0.00000000E+00  0.00000000E+00
  0.00000000E+00  0.00000000E+00  0.00000000E+00
  0.00000000E+00  0.00000000E+00  0.00000000E+00
  0.00000000E+00  0.00000000E+00  0.00000000E+00
  0.00000000E+00  0.00000000E+00  0.00000000E+00
  0.00000000E+00  0.00000000E+00  0.00000000E+00
  0.00000000E+00  0.00000000E+00  0.00000000E+00
  0.00000000E+00  0.00000000E+00  0.00000000E+00
  0.00000000E+00  0.00000000E+00  0.00000000E+00
  0.00000000E+00  0.00000000E+00  0.00000000E+00
  0.00000000E+00  0.00000000E+00  0.00000000E+00
  0.00000000E+00  0.00000000E+00  0.00000000E+00
  0.00000000E+00  0.00000000E+00  0.00000000E+00
  0.00000000E+00  0.00000000E+00  0.00000000E+00
  0.00000000E+00  0.00000000E+00  0.00000000E+00
  0.00000000E+00  0.00000000E+00  0.00000000E+00
  0.00000000E+00  0.00000000E+00  0.00000000E+00
  0.00000000E+00  0.00000000E+00  0.00000000E+00
  0.00000000E+00  0.00000000E+00  0.00000000E+00
  0.00000000E+00  0.00000000E+00  0.00000000E+00
  0.00000000E+00  0.00000000E+00  0.00000000E+00
  0.00000000E+00  0.00000000E+00  0.00000000E+00
  0.00000000E+00  0.00000000E+00  0.00000000E+00
  0.00000000E+00  0.00000000E+00  0.00000000E+00
  0.00000000E+00  0.00000000E+00  0.00000000E+00
  0.00000000E+00  0.00000000E+00  0.00000000E+00
  0.00000000E+00  0.00000000E+00  0.00000000E+00
  0.00000000E+00  0.00000000E+00  0.00000000E+00
  0.00000000E+00  0.00000000E+00  0.00000000E+00
  0.00000000E+00  0.00000000E+00  0.00000000E+00
  0.00000000E+00  0.00000000E+00  0.00000000E+00
  0.00000000E+00  0.00000000E+00  0.00000000E+00
  0.00000000E+00  0.00000000E+00  0.00000000E+00
  0.00000000E+00  0.00000000E+00  0.00000000E+00
  0.00000000E+00  0.00000000E+00  0.00000000E+00
  0.00000000E+00  0.00000000E+00  0.00000000E+00
  0.00000000E+00  0.00000000E+00  0.00000000E+00
  0.00000000E+00  0.00000000E+00  0.00000000E+00
  0.00000000E+00  0.00000000E+00  0.00000000E+00
  0.00000000E+00  0.00000000E+00  0.00000000E+00
  0.00000000E+00  0.00000000E+00  0.00000000E+00
  0.00000000E+00  0.00000000E+00  0.00000000E+00
  0.00000000E+00  0.00000000E+00  0.00000000E+00
  0.00000000E+00  0.00000000E+00  0.00000000E+00
  0.00000000E+00  0.00000000E+00  0.00000000E+00
  0.00000000E+00  0.00000000E+00  0.00000000E+00
  0.00000000E+00  0.00000000E+00  0.00000000E+00
  0.00000000E+00  0.00000000E+00  0.00000000E+00
  0.00000000E+00  0.00000000E+00  0.00000000E+00
  0.00000000E+00  0.00000000E+00  0.00000000E+00
  0.00000000E+00  0.00000000E+00  0.00000000E+00
  0.00000000E+00  0.00000000E+00  0.00000000E+00
  0.00000000E+00  0.00000000E+00  0.00000000E+00
  0.00000000E+00  0.00000000E+00  0.00000000E+00
  0.00000000E+00  0.00000000E+00  0.00000000E+00
  0.00000000E+00  0.00000000E+00  0.00000000E+00
  0.00000000E+00  0.00000000E+00  0.00000000E+00
  0.00000000E+00  0.00000000E+00  0.00000000E+00
  0.00000000E+00  0.00000000E+00  0.00000000E+00
  0.00000000E+00  0.00000000E+00  0.00000000E+00
  0.00000000E+00  0.00000000E+00  0.00000000E+00
  0.00000000E+00  0.00000000E+00  0.00000000E+00
  0.00000000E+00  0.00000000E+00  0.00000000E+00
  0.00000000E+00  0.00000000E+00  0.00000000E+00
  0.00000000E+00  0.00000000E+00  0.00000000E+00
  0.00000000E+00  0.00000000E+00  0.00000000E+00
  0.00000000E+00  0.00000000E+00  0.00000000E+00
  0.00000000E+00  0.00000000E+00  0.00000000E+00
  0.00000000E+00  0.00000000E+00  0.00000000E+00
  0.00000000E+00  0.00000000E+00  0.00000000E+00
  0.00000000E+00  0.00000000E+00  0.00000000E+00
  0.00000000E+00  0.00000000E+00  0.00000000E+00
  0.00000000E+00  0.00000000E+00  0.00000000E+00
  0.00000000E+00  0.00000000E+00  0.00000000E+00
  0.00000000E+00  0.00000000E+00  0.00000000E+00
  0.00000000E+00  0.00000000E+00  0.00000000E+00
  0.00000000E+00  0.00000000E+00  0.00000000E+00
  0.00000000E+00  0.00000000E+00  0.00000000E+00
  0.00000000E+00  0.00000000E+00  0.00000000E+00
  0.00000000E+00  0.00000000E+00  0.00000000E+00
  0.00000000E+00  0.00000000E+00  0.00000000E+00
  0.00000000E+00  0.00000000E+00  0.00000000E+00
  0.00000000E+00  0.00000000E+00  0.00000000E+00
  0.00000000E+00  0.00000000E+00  0.00000000E+00
  0.00000000E+00  0.00000000E+00  0.00000000E+00
  0.00000000E+00  0.00000000E+00  0.00000000E+00
  0.00000000E+00  0.00000000E+00  0.00000000E+00
  0.00000000E+00  0.00000000E+00  0.00000000E+00
  0.00000000E+00  0.00000000E+00  0.00000000E+00
  0.00000000E+00  0.00000000E+00  0.00000000E+00
  0.00000000E+00  0.00000000E+00  0.00000000E+00
  0.00000000E+00  0.00000000E+00  0.00000000E+00
  0.00000000E+00  0.00000000E+00  0.00000000E+00
  0.00000000E+00  0.00000000E+00  0.00000000E+00
  0.00000000E+00  0.00000000E+00  0.00000000E+00
  0.00000000E+00  0.00000000E+00  0.00000000E+00
  0.00000000E+00  0.00000000E+00  0.00000000E+00
  0.00000000E+00  0.00000000E+00  0.00000000E+00
  0.00000000E+00  0.00000000E+00  0.00000000E+00
  0.00000000E+00  0.00000000E+00  0.00000000E+00
  0.00000000E+00  0.00000000E+00  0.00000000E+00
  0.00000000E+00  0.00000000E+00  0.00000000E+00
  0.00000000E+00  0.00000000E+00  0.00000000E+00
  0.00000000E+00  0.00000000E+00  0.00000000E+00
  0.00000000E+00  0.00000000E+00  0.00000000E+00
  0.00000000E+00  0.00000000E+00  0.00000000E+00
  0.00000000E+00  0.00000000E+00  0.00000000E+00
  0.00000000E+00  0.00000000E+00  0.00000000E+00
  0.00000000E+00  0.00000000E+00  0.00000000E+00
  0.00000000E+00  0.00000000E+00  0.00000000E+00
  0.00000000E+00  0.00000000E+00  0.00000000E+00
  0.00000000E+00  0.00000000E+00  0.00000000E+00
  0.00000000E+00  0.00000000E+00  0.00000000E+00
  0.00000000E+00  0.00000000E+00  0.00000000E+00
  0.00000000E+00  0.00000000E+00  0.00000000E+00
  0.00000000E+00  0.00000000E+00  0.00000000E+00
  0.00000000E+00  0.00000000E+00  0.00000000E+00
  0.00000000E+00  0.00000000E+00  0.00000000E+00
  0.00000000E+00  0.00000000E+00  0.00000000E+00
  0.00000000E+00  0.00000000E+00  0.00000000E+00
  0.00000000E+00  0.00000000E+00  0.00000000E+00
  0.00000000E+00  0.00000000E+00  0.00000000E+00
  0.00000000E+00  0.00000000E+00  0.00000000E+00
  0.00000000E+00  0.00000000E+00  0.00000000E+00
  0.00000000E+00  0.00000000E+00  0.00000000E+00
  0.00000000E+00  0.00000000E+00  0.00000000E+00
  0.00000000E+00  0.00000000E+00  0.00000000E+00
  0.00000000E+00  0.00000000E+00  0.00000000E+00
  0.00000000E+00  0.00000000E+00  0.00000000E+00
  0.00000000E+00  0.00000000E+00  0.00000000E+00
  0.00000000E+00  0.00000000E+00  0.00000000E+00
  0.00000000E+00  0.00000000E+00  0.00000000E+00
  0.00000000E+00  0.00000000E+00  0.00000000E+00
  0.00000000E+00  0.00000000E+00  0.00000000E+00
  0.00000000E+00  0.00000000E+00  0.00000000E+00
  0.00000000E+00  0.00000000E+00  0.00000000E+00
  0.00000000E+00  0.00000000E+00  0.00000000E+00
  0.00000000E+00  0.00000000E+00  0.00000000E+00
  0.00000000E+00  0.00000000E+00  0.00000000E+00
  0.00000000E+00  0.00000000E+00  0.00000000E+00
  0.00000000E+00  0.00000000E+00  0.00000000E+00
  0.00000000E+00  0.00000000E+00  0.00000000E+00
  0.00000000E+00  0.00000000E+00  0.00000000E+00
  0.00000000E+00  0.00000000E+00  0.00000000E+00
  0.00000000E+00  0.00000000E+00  0.00000000E+00
  0.00000000E+00  0.00000000E+00  0.00000000E+00
  0.00000000E+00  0.00000000E+00  0.00000000E+00
  0.00000000E+00  0.00000000E+00  0.00000000E+00
  0.00000000E+00  0.00000000E+00  0.00000000E+00
  0.00000000E+00  0.00000000E+00  0.00000000E+00
  0.00000000E+00  0.00000000E+00  0.00000000E+00
  0.00000000E+00  0.00000000E+00  0.00000000E+00
  0.00000000E+00  0.00000000E+00  0.00000000E+00
  0.00000000E+00  0.00000000E+00  0.00000000E+00
  0.00000000E+00  0.00000000E+00  0.00000000E+00
