Zn47Ge49P96                             
   1.00000000000000     
    16.4039999999999999    0.0000000000000000    0.0000000000000000
     0.0000000000000000   15.3313769999999998    0.0000000000000000
     0.0000000000000000    0.2701040000000000   15.3289980000000003
   Zn   Ge   P 
    47    49    96
Direct
  0.9976396761093536  0.0000764852868131  0.9974062551992817
  0.1672538403039128  0.6239433074153439  0.3753518467372702
  0.1677509848005736  0.8729732202665446  0.3737947707930774
  0.9999983439734137  0.4996890374532230  0.7503076475869309
  0.0002054637483984  0.5001585926720929  0.4999850836390989
  0.1666772133272609  0.1250170721933355  0.8748127929907817
  0.1668954924351721  0.3753825076647966  0.8748697312235318
  0.0000768591405344  0.2503283171318677  0.5009792932618833
  0.0023578866411206  0.2525896657020901  0.2499199281004831
  0.1666094951643057  0.8745239144536707  0.6251346591590009
  0.1663123743879646  0.1254000652384355  0.6248385270342042
 -0.0000793958744476  0.7490174522973362 -0.0003321667695830
  0.9997916542596744  0.7500115390687754  0.7498391325367791
  0.1672327789534003  0.3752721144738401  0.1252371043571545
  0.1671303672857818  0.6240969367917540  0.1246038952061150
  0.3343654326062971  0.9995443757762902  0.2499027943628178
  0.3336476725761771  0.0001850100362346  0.9996087955076407
  0.5002197538561732  0.6246653571730695  0.3751648904686165
  0.4999987076343102  0.8751379136672485  0.3748581728778892
  0.3334436433105092  0.4998323208472605  0.7503010133487957
  0.3336149674997516  0.5001536251027675  0.4998573844823622
  0.4998897626617692  0.1247140946467513  0.8751581569542028
  0.4999988554392478  0.3752671101582498  0.8747288833885717
  0.3332648311412096  0.2500058435156534  0.5002293496582143
  0.3339274276591405  0.2506791440745508  0.2497087712840070
  0.4997779482362124  0.8748327987794919  0.6253303796554078
  0.4996910026720244  0.1253285527360649  0.6249780831124579
  0.3340254167791056  0.7490356740533153  0.9998764563648457
  0.3332931822849484  0.7501914742633228  0.7496457869365042
  0.5001075571458532  0.3748376098026007  0.1252820866862920
  0.5003065318457692  0.6250178744069635  0.1246684297877132
  0.6656319491626201  0.0000947203624223  0.2504516065044140
  0.6660695014162661  0.0002881423220999 -0.0006835292546401
  0.8333878809496357  0.6248616464686714  0.3754722766520189
  0.8322467669590671  0.8762023480052011  0.3770226933138334
  0.6665531363218791  0.4996959348378671  0.7501650738594891
  0.6667038468914424  0.5003508722504377  0.4998054901055570
  0.8327643525378633  0.1247597183586779  0.8747229753699092
  0.8331022054896380  0.3751269981239767  0.8746135515200817
  0.6659715883473106  0.2501209934720515  0.5009604420408299
  0.6663495251213799  0.2503881926264559  0.2498109219616908
  0.8327436079394619  0.8746449275901935  0.6260522879891985
  0.8328670290579802  0.1253927460430290  0.6258984627658434
  0.6667324269928011  0.7497677996294424 -0.0000088119877819
  0.6663823987945443  0.7501398339334787  0.7498428336819708
  0.8333200490487843  0.3751839374464284  0.1249787193246053
  0.8336848596737444  0.6251579445991634  0.1245970666352638
  0.1686674336423160  0.8721573502663071  0.1244115904535149
  0.1680289945485400  0.1268226164635368  0.1248149357828214
  0.9999988535325137  0.7494784614184804  0.5005189765128198
  0.0017901294594016  0.7475589219980057  0.2504280747174410
  0.1667060297840497  0.3753701003129593  0.6251227673826971
  0.1667966709965536  0.6246321229668250  0.6252598866774361
  0.9999985924920708  0.2507398587311803 -0.0007437793893356
  0.9997867998689813  0.2499895360539114  0.7502777058057559
  0.1678944464098713  0.1272444772429955  0.3741832828681106
  0.1671781621255617  0.3755578141809040  0.3754154491049834
  0.0002669354226545  0.0001065695483386  0.7505204419495356
  0.9982071947575161 -0.0004303317517645  0.5024373013552732
  0.1667929518153087  0.6249149454206963  0.8747856464266074
  0.1665639614193553  0.8744987444887973  0.8750199088001029
  0.9997303140121456  0.4994752543774852  0.2498895580157040
  0.0002105698308227  0.4997183682161671  0.0000071658536992
  0.5000907529938278  0.8750171223533089  0.1247063094729475
  0.4999984736848623  0.1249743914157422  0.1250214796242785
  0.3333191104662989  0.7499958134983155  0.4996888333277857
  0.3340041171090686  0.7489897334478496  0.2500725215883089
  0.4998523948999308  0.3752564428867707  0.6249372682061891
  0.4999987819418376  0.6249182105797711  0.6250793504143481
  0.3336471880107195  0.2504002440993270  0.9996603173578795
  0.3332717400916222  0.2499242922571255  0.7501062577198246
  0.4999066444297258  0.1252899521645637  0.3749793970520207
  0.5000710349356303  0.3749307233214918  0.3751843374741530
  0.3331703394737912  0.0001587406102152  0.7497187204348653
  0.3333698759484420  0.9996785518643291  0.4999025296292453
  0.5001446750935374  0.6250594788147081  0.8747409617285274
  0.4999258633648546  0.8748124376336803  0.8750655091508184
  0.3336685378204137  0.5000101962050668  0.2498266257124211
  0.3335306771787355  0.4997758116313071  0.0001832545124145
  0.8321030408137285  0.8758133442469425  0.1227508207661964
  0.8319679847113383  0.1251816320753606  0.1231725482848513
  0.6666786439914065  0.7503074427837045  0.5000003263145024
  0.6666276817657676  0.7500940609092087  0.2503179939450094
  0.8332038599824297  0.3752109552672849  0.6250807693790406
  0.8332003369300958  0.6247367181945638  0.6253642831777937
  0.6663500170465018  0.2503359528419462 -0.0004045541170320
  0.6664667522869546  0.2498128648034960  0.7502202023323247
  0.8313291515608792  0.1255856985008010  0.3778376231213876
  0.8334338054293484  0.3749768091940616  0.3754979144438244
  0.6663287977570673  0.0001700604830416  0.7499853334505868
  0.6659934187448088 -0.0000755150569388  0.5010062602345448
  0.8332911932002910  0.6248739968802501  0.8746266651069622
  0.8328190023833393  0.8745815855670955  0.8744381930998790
  0.6668268294770611  0.5002771989122140  0.2498383651426931
  0.6667257933650373  0.4998904694639022  0.0000721076336319
 -0.0000014001076570  0.0010456709637015  0.2489507381045196
  0.0846137794885707  0.0009981439191299  0.3791412930520344
  0.2494452103548262  0.1247126878433451  0.2496026460595890
  0.0872556673515547  0.9993282453659378  0.1197903988363659
  0.2509306963634582  0.8735615031900195  0.2484588924767623
  0.2501006129963557  0.6260331805097633  0.5013169854627192
  0.0822864798245454  0.7492983555274118  0.3756567880844957
  0.2509437567920992  0.8751571767019654  0.4997506320804900
  0.0834605506575705  0.7486232715630291  0.6240442231302638
  0.0834086975605643  0.5011055596255926  0.8761278383531826
  0.2487921169994441  0.6250138592981088  0.7500284383971813
  0.0845922814064871  0.5000249824939619  0.6251694201180820
  0.2500634804443509  0.3738595436597969  0.7489196616713660
  0.2501744251918778  0.1260755184940953  0.0006552296456501
  0.0821890321673708  0.2501320594805182  0.8748544172323210
  0.2514628599585619  0.3750110536263543  0.0000613154778178
  0.0834446414433998  0.2491773071823266  0.1232824041576843
  0.0833897593227974  0.2514039052102858  0.6265514634745829
  0.2487598966957226  0.3750676483293767  0.5003045330823390
  0.0847605705999261  0.2505650368595858  0.3756821710572650
  0.2497521318539692  0.1235080410633973  0.4987906260443618
  0.2498423331732512  0.8762502827006297  0.7510948913713533
  0.0821863306795104 -0.0001910218537025  0.6252255518103517
  0.2512331794117947  0.1250129247504690  0.7497451586735072
  0.0838261749486139  0.9989099879300702  0.8747199326233335
  0.0833470211380159  0.7503061566336769  0.1257075884608327
  0.2495434729870855  0.8745793045944543  0.9992129252553109
  0.0846339796531153  0.7497366430207582  0.8749149925724360
  0.2501493917520054  0.6236803389656357  0.9986693500159939
  0.2501381797183309  0.3761243113177652  0.2513472770171076
  0.0818773235944999  0.4996225258786771  0.1250530821398871
  0.2513705283272431  0.6247274374706100  0.2499317536941783
  0.0832216347720573  0.4987167804431192  0.3738383417154459
  0.4167699111004286  0.0012137228745804  0.3761690161675671
  0.5817701675933137  0.1253558601753867  0.2500381516084316
  0.4182268799261795  0.9999578938689404  0.1246408830300540
  0.5832278638616334  0.8738277935802039  0.2487822761681054
  0.5834250415391045  0.6263651894315502  0.5010918678652786
  0.4155547349697121  0.7498757623907445  0.3749930638389900
  0.5844434995137969  0.8750036495412565  0.5001204955678202
  0.4165725870827844  0.7489055299308953  0.6236313672616355
  0.4167375773504678  0.5011897222926512  0.8762738962921545
  0.5820618959574101  0.6249024517123287  0.7498724196671028
  0.4179355438915883  0.5001253881604077  0.6250950335562744
  0.5832598797858489  0.3737223150313634  0.7488064525538151
  0.5832028709592698  0.1262815947956323  0.0011436902603116
  0.4154779067787961  0.2499601730482505  0.8747825700040487
  0.5845193886623707  0.3752137728215225  0.0000359719017973
  0.4167939427275693  0.2488524478460007  0.1237149385658714
  0.4164589376833325  0.2512266112548742  0.6261903977963965
  0.5818643905687064  0.3753069903538291  0.5000799664847494
  0.4179302857161210  0.2500463378207346  0.3751103543250713
  0.5830418733080582  0.1239297062793030  0.4989810729174557
  0.5832141891842590  0.8762056022538800  0.7511758476566170
  0.4151472661181901  0.0000316480200774  0.6248435160828768
  0.5844620153962671  0.1249806374266719  0.7500248571165383
  0.4166141342212886  0.9987671399506985  0.8735769300853615
  0.4169558186969560  0.7510151154328109  0.1260672884907681
  0.5820668460761151  0.8748864652529732 -0.0000503567824644
  0.4181322215994679  0.7499169102022271  0.8746899357189494
  0.5835384996722429  0.6238060616567648  0.9987704411699696
  0.5833827824120609  0.3764193465561143  0.2512293863854112
  0.4155353408930023  0.4999711967364364  0.1250155473954209
  0.5848503149453790  0.6251530056423258  0.2499647881535614
  0.4167828717670441  0.4988202462071701  0.3737912363609159
  0.7490668336720070  0.0015377969386498  0.3764347555039487
  0.9127412809209786  0.1302061303896130  0.2506666601132904
  0.7505518096661011  0.0003939358713577  0.1252831996603502
  0.9153833852251363  0.8708547832633070  0.2489977709416652
  0.9165368853125766  0.6259530758165162  0.5013733606875594
  0.7490542422002305  0.7502454528075303  0.3748390875685147
  0.9177111184561357  0.8743407931557279  0.5006976258725446
  0.7498961821744873  0.7486794134915001  0.6239636006068051
  0.7499343708020306  0.5010768129809932  0.8761370819467498
  0.9154049723199350  0.6248272556033382  0.7499713357499735
  0.7512049803757883  0.4999680242867072  0.6249838474532647
  0.9165883056473288  0.3738686910230995  0.7488901250741947
  0.9165525654162836  0.1267137248757937  0.0008180338683059
  0.7485344878489947  0.2499351779917624  0.8749849303223246
  0.9178082178764978  0.3751419231300466 -0.0001360462866532
  0.7498225713770812  0.2493409397436125  0.1239202972348017
  0.7498478521660454  0.2513272215904697  0.6263155642004176
  0.9153636929160130  0.3750820520539894  0.5002596159615452
  0.7504537843824102  0.2507846305243459  0.3754167374722441
  0.9166496778626079  0.1242896473498399  0.4996887191600272
  0.9167753374827387  0.8761582297350693  0.7512792639077734
  0.7486270914984489  0.0000647398279284  0.6252686448105882
  0.9181200883456466  0.1249434302325161  0.7503730261747800
  0.7498593532637378  0.9986496615700287  0.8738718188541964
  0.7502454830742347  0.7512060490530049  0.1264883465356987
  0.9152368499003496  0.8743144620864635 -0.0005693453850046
  0.7512373100321245  0.7496924117833907  0.8749291400970856
  0.9166076408890536  0.6234450931939406  0.9985928744112036
  0.9161714009747018  0.3752761526452893  0.2510867113231007
  0.7487641985635464  0.5002508672235532  0.1249835756310737
  0.9178115118157819  0.6247710777373096  0.2501874376240340
  0.7501548303445240  0.4989016397101687  0.3737465034339301
 
  0.00000000E+00  0.00000000E+00  0.00000000E+00
  0.00000000E+00  0.00000000E+00  0.00000000E+00
  0.00000000E+00  0.00000000E+00  0.00000000E+00
  0.00000000E+00  0.00000000E+00  0.00000000E+00
  0.00000000E+00  0.00000000E+00  0.00000000E+00
  0.00000000E+00  0.00000000E+00  0.00000000E+00
  0.00000000E+00  0.00000000E+00  0.00000000E+00
  0.00000000E+00  0.00000000E+00  0.00000000E+00
  0.00000000E+00  0.00000000E+00  0.00000000E+00
  0.00000000E+00  0.00000000E+00  0.00000000E+00
  0.00000000E+00  0.00000000E+00  0.00000000E+00
  0.00000000E+00  0.00000000E+00  0.00000000E+00
  0.00000000E+00  0.00000000E+00  0.00000000E+00
  0.00000000E+00  0.00000000E+00  0.00000000E+00
  0.00000000E+00  0.00000000E+00  0.00000000E+00
  0.00000000E+00  0.00000000E+00  0.00000000E+00
  0.00000000E+00  0.00000000E+00  0.00000000E+00
  0.00000000E+00  0.00000000E+00  0.00000000E+00
  0.00000000E+00  0.00000000E+00  0.00000000E+00
  0.00000000E+00  0.00000000E+00  0.00000000E+00
  0.00000000E+00  0.00000000E+00  0.00000000E+00
  0.00000000E+00  0.00000000E+00  0.00000000E+00
  0.00000000E+00  0.00000000E+00  0.00000000E+00
  0.00000000E+00  0.00000000E+00  0.00000000E+00
  0.00000000E+00  0.00000000E+00  0.00000000E+00
  0.00000000E+00  0.00000000E+00  0.00000000E+00
  0.00000000E+00  0.00000000E+00  0.00000000E+00
  0.00000000E+00  0.00000000E+00  0.00000000E+00
  0.00000000E+00  0.00000000E+00  0.00000000E+00
  0.00000000E+00  0.00000000E+00  0.00000000E+00
  0.00000000E+00  0.00000000E+00  0.00000000E+00
  0.00000000E+00  0.00000000E+00  0.00000000E+00
  0.00000000E+00  0.00000000E+00  0.00000000E+00
  0.00000000E+00  0.00000000E+00  0.00000000E+00
  0.00000000E+00  0.00000000E+00  0.00000000E+00
  0.00000000E+00  0.00000000E+00  0.00000000E+00
  0.00000000E+00  0.00000000E+00  0.00000000E+00
  0.00000000E+00  0.00000000E+00  0.00000000E+00
  0.00000000E+00  0.00000000E+00  0.00000000E+00
  0.00000000E+00  0.00000000E+00  0.00000000E+00
  0.00000000E+00  0.00000000E+00  0.00000000E+00
  0.00000000E+00  0.00000000E+00  0.00000000E+00
  0.00000000E+00  0.00000000E+00  0.00000000E+00
  0.00000000E+00  0.00000000E+00  0.00000000E+00
  0.00000000E+00  0.00000000E+00  0.00000000E+00
  0.00000000E+00  0.00000000E+00  0.00000000E+00
  0.00000000E+00  0.00000000E+00  0.00000000E+00
  0.00000000E+00  0.00000000E+00  0.00000000E+00
  0.00000000E+00  0.00000000E+00  0.00000000E+00
  0.00000000E+00  0.00000000E+00  0.00000000E+00
  0.00000000E+00  0.00000000E+00  0.00000000E+00
  0.00000000E+00  0.00000000E+00  0.00000000E+00
  0.00000000E+00  0.00000000E+00  0.00000000E+00
  0.00000000E+00  0.00000000E+00  0.00000000E+00
  0.00000000E+00  0.00000000E+00  0.00000000E+00
  0.00000000E+00  0.00000000E+00  0.00000000E+00
  0.00000000E+00  0.00000000E+00  0.00000000E+00
  0.00000000E+00  0.00000000E+00  0.00000000E+00
  0.00000000E+00  0.00000000E+00  0.00000000E+00
  0.00000000E+00  0.00000000E+00  0.00000000E+00
  0.00000000E+00  0.00000000E+00  0.00000000E+00
  0.00000000E+00  0.00000000E+00  0.00000000E+00
  0.00000000E+00  0.00000000E+00  0.00000000E+00
  0.00000000E+00  0.00000000E+00  0.00000000E+00
  0.00000000E+00  0.00000000E+00  0.00000000E+00
  0.00000000E+00  0.00000000E+00  0.00000000E+00
  0.00000000E+00  0.00000000E+00  0.00000000E+00
  0.00000000E+00  0.00000000E+00  0.00000000E+00
  0.00000000E+00  0.00000000E+00  0.00000000E+00
  0.00000000E+00  0.00000000E+00  0.00000000E+00
  0.00000000E+00  0.00000000E+00  0.00000000E+00
  0.00000000E+00  0.00000000E+00  0.00000000E+00
  0.00000000E+00  0.00000000E+00  0.00000000E+00
  0.00000000E+00  0.00000000E+00  0.00000000E+00
  0.00000000E+00  0.00000000E+00  0.00000000E+00
  0.00000000E+00  0.00000000E+00  0.00000000E+00
  0.00000000E+00  0.00000000E+00  0.00000000E+00
  0.00000000E+00  0.00000000E+00  0.00000000E+00
  0.00000000E+00  0.00000000E+00  0.00000000E+00
  0.00000000E+00  0.00000000E+00  0.00000000E+00
  0.00000000E+00  0.00000000E+00  0.00000000E+00
  0.00000000E+00  0.00000000E+00  0.00000000E+00
  0.00000000E+00  0.00000000E+00  0.00000000E+00
  0.00000000E+00  0.00000000E+00  0.00000000E+00
  0.00000000E+00  0.00000000E+00  0.00000000E+00
  0.00000000E+00  0.00000000E+00  0.00000000E+00
  0.00000000E+00  0.00000000E+00  0.00000000E+00
  0.00000000E+00  0.00000000E+00  0.00000000E+00
  0.00000000E+00  0.00000000E+00  0.00000000E+00
  0.00000000E+00  0.00000000E+00  0.00000000E+00
  0.00000000E+00  0.00000000E+00  0.00000000E+00
  0.00000000E+00  0.00000000E+00  0.00000000E+00
  0.00000000E+00  0.00000000E+00  0.00000000E+00
  0.00000000E+00  0.00000000E+00  0.00000000E+00
  0.00000000E+00  0.00000000E+00  0.00000000E+00
  0.00000000E+00  0.00000000E+00  0.00000000E+00
  0.00000000E+00  0.00000000E+00  0.00000000E+00
  0.00000000E+00  0.00000000E+00  0.00000000E+00
  0.00000000E+00  0.00000000E+00  0.00000000E+00
  0.00000000E+00  0.00000000E+00  0.00000000E+00
  0.00000000E+00  0.00000000E+00  0.00000000E+00
  0.00000000E+00  0.00000000E+00  0.00000000E+00
  0.00000000E+00  0.00000000E+00  0.00000000E+00
  0.00000000E+00  0.00000000E+00  0.00000000E+00
  0.00000000E+00  0.00000000E+00  0.00000000E+00
  0.00000000E+00  0.00000000E+00  0.00000000E+00
  0.00000000E+00  0.00000000E+00  0.00000000E+00
  0.00000000E+00  0.00000000E+00  0.00000000E+00
  0.00000000E+00  0.00000000E+00  0.00000000E+00
  0.00000000E+00  0.00000000E+00  0.00000000E+00
  0.00000000E+00  0.00000000E+00  0.00000000E+00
  0.00000000E+00  0.00000000E+00  0.00000000E+00
  0.00000000E+00  0.00000000E+00  0.00000000E+00
  0.00000000E+00  0.00000000E+00  0.00000000E+00
  0.00000000E+00  0.00000000E+00  0.00000000E+00
  0.00000000E+00  0.00000000E+00  0.00000000E+00
  0.00000000E+00  0.00000000E+00  0.00000000E+00
  0.00000000E+00  0.00000000E+00  0.00000000E+00
  0.00000000E+00  0.00000000E+00  0.00000000E+00
  0.00000000E+00  0.00000000E+00  0.00000000E+00
  0.00000000E+00  0.00000000E+00  0.00000000E+00
  0.00000000E+00  0.00000000E+00  0.00000000E+00
  0.00000000E+00  0.00000000E+00  0.00000000E+00
  0.00000000E+00  0.00000000E+00  0.00000000E+00
  0.00000000E+00  0.00000000E+00  0.00000000E+00
  0.00000000E+00  0.00000000E+00  0.00000000E+00
  0.00000000E+00  0.00000000E+00  0.00000000E+00
  0.00000000E+00  0.00000000E+00  0.00000000E+00
  0.00000000E+00  0.00000000E+00  0.00000000E+00
  0.00000000E+00  0.00000000E+00  0.00000000E+00
  0.00000000E+00  0.00000000E+00  0.00000000E+00
  0.00000000E+00  0.00000000E+00  0.00000000E+00
  0.00000000E+00  0.00000000E+00  0.00000000E+00
  0.00000000E+00  0.00000000E+00  0.00000000E+00
  0.00000000E+00  0.00000000E+00  0.00000000E+00
  0.00000000E+00  0.00000000E+00  0.00000000E+00
  0.00000000E+00  0.00000000E+00  0.00000000E+00
  0.00000000E+00  0.00000000E+00  0.00000000E+00
  0.00000000E+00  0.00000000E+00  0.00000000E+00
  0.00000000E+00  0.00000000E+00  0.00000000E+00
  0.00000000E+00  0.00000000E+00  0.00000000E+00
  0.00000000E+00  0.00000000E+00  0.00000000E+00
  0.00000000E+00  0.00000000E+00  0.00000000E+00
  0.00000000E+00  0.00000000E+00  0.00000000E+00
  0.00000000E+00  0.00000000E+00  0.00000000E+00
  0.00000000E+00  0.00000000E+00  0.00000000E+00
  0.00000000E+00  0.00000000E+00  0.00000000E+00
  0.00000000E+00  0.00000000E+00  0.00000000E+00
  0.00000000E+00  0.00000000E+00  0.00000000E+00
  0.00000000E+00  0.00000000E+00  0.00000000E+00
  0.00000000E+00  0.00000000E+00  0.00000000E+00
  0.00000000E+00  0.00000000E+00  0.00000000E+00
  0.00000000E+00  0.00000000E+00  0.00000000E+00
  0.00000000E+00  0.00000000E+00  0.00000000E+00
  0.00000000E+00  0.00000000E+00  0.00000000E+00
  0.00000000E+00  0.00000000E+00  0.00000000E+00
  0.00000000E+00  0.00000000E+00  0.00000000E+00
  0.00000000E+00  0.00000000E+00  0.00000000E+00
  0.00000000E+00  0.00000000E+00  0.00000000E+00
  0.00000000E+00  0.00000000E+00  0.00000000E+00
  0.00000000E+00  0.00000000E+00  0.00000000E+00
  0.00000000E+00  0.00000000E+00  0.00000000E+00
  0.00000000E+00  0.00000000E+00  0.00000000E+00
  0.00000000E+00  0.00000000E+00  0.00000000E+00
  0.00000000E+00  0.00000000E+00  0.00000000E+00
  0.00000000E+00  0.00000000E+00  0.00000000E+00
  0.00000000E+00  0.00000000E+00  0.00000000E+00
  0.00000000E+00  0.00000000E+00  0.00000000E+00
  0.00000000E+00  0.00000000E+00  0.00000000E+00
  0.00000000E+00  0.00000000E+00  0.00000000E+00
  0.00000000E+00  0.00000000E+00  0.00000000E+00
  0.00000000E+00  0.00000000E+00  0.00000000E+00
  0.00000000E+00  0.00000000E+00  0.00000000E+00
  0.00000000E+00  0.00000000E+00  0.00000000E+00
  0.00000000E+00  0.00000000E+00  0.00000000E+00
  0.00000000E+00  0.00000000E+00  0.00000000E+00
  0.00000000E+00  0.00000000E+00  0.00000000E+00
  0.00000000E+00  0.00000000E+00  0.00000000E+00
  0.00000000E+00  0.00000000E+00  0.00000000E+00
  0.00000000E+00  0.00000000E+00  0.00000000E+00
  0.00000000E+00  0.00000000E+00  0.00000000E+00
  0.00000000E+00  0.00000000E+00  0.00000000E+00
  0.00000000E+00  0.00000000E+00  0.00000000E+00
  0.00000000E+00  0.00000000E+00  0.00000000E+00
  0.00000000E+00  0.00000000E+00  0.00000000E+00
  0.00000000E+00  0.00000000E+00  0.00000000E+00
  0.00000000E+00  0.00000000E+00  0.00000000E+00
  0.00000000E+00  0.00000000E+00  0.00000000E+00
  0.00000000E+00  0.00000000E+00  0.00000000E+00
  0.00000000E+00  0.00000000E+00  0.00000000E+00
  0.00000000E+00  0.00000000E+00  0.00000000E+00
  0.00000000E+00  0.00000000E+00  0.00000000E+00
