C_N1                                    
   1.00000000000000     
    12.7657781140999997    0.0000000000000000    0.0000000000000000
     0.0000000000000000   11.0554881486000003    0.0000000000000000
     0.0000000000000000    0.0000000000000000   10.3624043882999999
   Ga   N    C 
    64    63     1
Direct
  0.0000000000000000  0.1675273111537763  0.2547123159745937
  0.1251107091561110  0.0778598606370409  0.9965944717615400
  0.1243556508173640  0.4167409397493458  0.2508453989594912
  0.0000000000000000  0.3368285065220107  0.9995988618544303
  0.0000000000000000  0.1677866255152693  0.7516937125045473
  0.1251143009559641  0.0832346866094369  0.5024895760283314
  0.1253478930823562  0.4174917026023977  0.7503949222773514
  0.0000000000000000  0.3343122708067341  0.5027474230352240
  0.0000000000000000  0.6666430982761966  0.2506497372802272
  0.1254378707020081  0.5846275514485129  0.0006675417391619
  0.1250091419977437  0.9170575710771089  0.2511368366705682
  0.0000000000000000  0.8323361176649371  0.0008135803613669
  0.0000000000000000  0.6665102348308025  0.7504214739272896
  0.1250937261202338  0.5835116556665199  0.5004093558132183
  0.1250277486159135  0.9153414719757293  0.7495773898085361
  0.0000000000000000  0.8330103042936159  0.5000436453025543
  0.2489740953233124  0.1663234198235770  0.2513336358113065
  0.3746979789503300  0.0830465109403775  0.0004246744531144
  0.3748621454929335  0.4165690508150774  0.2506264278013290
  0.2489446579841470  0.3338339642194157  0.0007962182224404
  0.2504347794107389  0.1671320007725541  0.7502797048499374
  0.3749961727841225  0.0834357832221997  0.5003513211790107
  0.3749757547133967  0.4166598282018441  0.7505580025212524
  0.2500286853794336  0.3336107798133341  0.5002537815224386
  0.2500627394131669  0.6665676847045034  0.2507224139143815
  0.3751647913781255  0.5828700337449106  0.0006700216686824
  0.3749905079006552  0.9166032025537660  0.2507852262598078
  0.2509599306163182  0.8322681809889687  0.0004358547316841
  0.2502477818638980  0.6665712571118334  0.7503097221052712
  0.3750611030864661  0.5833576205263569  0.5006051937290934
  0.3750641563673227  0.9165971916872238  0.7503845551378845
  0.2501584737816103  0.8332107375192521  0.5003371748483758
  0.5000000000000000  0.1668374778055721  0.2509776506202996
  0.6253020350496641  0.0830465109403775  0.0004246744531144
  0.6251378685070605  0.4165690508150774  0.2506264278013290
  0.5000000000000000  0.3335359592628819  0.0004175840521086
  0.5000000000000000  0.1667416315241397  0.7505014408743236
  0.6250038412158716  0.0834357832221997  0.5003513211790107
  0.6250242592865973  0.4166598282018441  0.7505580025212524
  0.5000000000000000  0.3334914371655344  0.5006530304578689
  0.5000000000000000  0.6665211910406157  0.2507354773248451
  0.6248352226218685  0.5828700337449106  0.0006700216686824
  0.6250095060993388  0.9166032025537660  0.2507852262598078
  0.5000000000000000  0.8331863713404601  0.0005705953904567
  0.5000000000000000  0.6665775165348649  0.7505755904919553
  0.6249389109135279  0.5833576205263569  0.5006051937290934
  0.6249358576326713  0.9165971916872238  0.7503845551378845
  0.5000000000000000  0.8333390101321925  0.5006050194774758
  0.7510259046766876  0.1663234198235770  0.2513336358113065
  0.8748893048438831  0.0778598606370409  0.9965944717615400
  0.8756443631826301  0.4167409397493458  0.2508453989594912
  0.7510553420158530  0.3338339642194157  0.0007962182224404
  0.7495652205892611  0.1671320007725541  0.7502797048499374
  0.8748857130440300  0.0832346866094369  0.5024895760283314
  0.8746521209176379  0.4174917026023977  0.7503949222773514
  0.7499713146205664  0.3336107798133341  0.5002537815224386
  0.7499372605868331  0.6665676847045034  0.2507224139143815
  0.8745621432979860  0.5846275514485129  0.0006675417391619
  0.8749908720022503  0.9170575710771089  0.2511368366705682
  0.7490400693836818  0.8322681809889687  0.0004358547316841
  0.7497522181361020  0.6665712571118334  0.7503097221052712
  0.8749062878797602  0.5835116556665199  0.5004093558132183
  0.8749722653840806  0.9153414719757293  0.7495773898085361
  0.7498415262183897  0.8332107375192521  0.5003371748483758
  0.1256093700309791  0.0825694886284083  0.3147199338665345
  0.1257246867157917  0.4194205126468944  0.0619924605784590
  0.0000000000000000  0.3351212694112036  0.3155351709321792
  0.0000000000000000  0.1670277282827328  0.5629235562631223
  0.1255447795086297  0.0822338315489901  0.8093468366331962
  0.1257004570291684  0.4173919012464751  0.5620595017324064
  0.0000000000000000  0.3353435856694773  0.8097897076763729
  0.0000000000000000  0.6666740638701256  0.0619837726880448
  0.1250955348115639  0.5835992696550818  0.3118286583285794
  0.1257029988111924  0.9141575525221128  0.0620309957149203
  0.0000000000000000  0.8333103056484816  0.3114160825124159
  0.0000000000000000  0.6666491208900069  0.5617109863863448
  0.1252292136553734  0.5839726378623737  0.8118051360017304
  0.1250137277406935  0.9159223598937913  0.5615780870726255
  0.0000000000000000  0.8330498402089788  0.8119824556945687
  0.2477774519669893  0.1663012681829485  0.0617176108021980
  0.3749139107688606  0.0833862516109320  0.3113752393760336
  0.3749015543833565  0.4161709902240815  0.0617715863365618
  0.2498586570835570  0.3332006672528394  0.3113794894233664
  0.2504731081516454  0.1671346120780655  0.5619651449557637
  0.3750823057811630  0.0832052034878217  0.8119818061624642
  0.3750862414781366  0.4168461884076677  0.5617651180803236
  0.2500392697147262  0.3333507055374056  0.8120767253971195
  0.2508852924859113  0.6667360807104501  0.0620424660148231
  0.3750674801418228  0.5831333677690083  0.3118457938885086
  0.3751667714626095  0.9169699066588066  0.0618622453944369
  0.2501377172564645  0.8331988054062265  0.3116797371407074
  0.2501811016059818  0.6668050261324936  0.5616710550298336
  0.3751127843392297  0.5831470269955048  0.8118314121633219
  0.3750455314612111  0.9168708519769808  0.5616634722880320
  0.2503222679377615  0.8330822618526668  0.8116988488323287
  0.5000000000000000  0.1668467958098745  0.0618550239528517
  0.6250861032311334  0.0833862516109320  0.3113752393760336
  0.6250984596166376  0.4161709902240815  0.0617715863365618
  0.5000000000000000  0.3333395223170612  0.3117922141039884
  0.5000000000000000  0.1667574087409989  0.5617091732669692
  0.6249177082188311  0.0832052034878217  0.8119818061624642
  0.6249137725218574  0.4168461884076677  0.5617651180803236
  0.5000000000000000  0.3332240691516475  0.8117161430981028
  0.5000000000000000  0.6666288953537958  0.0618553580211767
  0.6249325338581713  0.5831333677690083  0.3118457938885086
  0.6248332425373846  0.9169699066588066  0.0618622453944369
  0.5000000000000000  0.8332116206585454  0.3117645650567056
  0.5000000000000000  0.6668423882692167  0.5618089602375136
  0.6248872296607644  0.5831470269955048  0.8118314121633219
  0.6249544825387829  0.9168708519769808  0.5616634722880320
  0.5000000000000000  0.8332323145262350  0.8118008343519563
  0.7522225480330107  0.1663012681829485  0.0617176108021980
  0.8743906439690150  0.0825694886284083  0.3147199338665345
  0.8742753272842023  0.4194205126468944  0.0619924605784590
  0.7501413429164430  0.3332006672528394  0.3113794894233664
  0.7495268918483546  0.1671346120780655  0.5619651449557637
  0.8744552344913643  0.0822338315489901  0.8093468366331962
  0.8742995569708256  0.4173919012464751  0.5620595017324064
  0.7499607302852738  0.3333507055374056  0.8120767253971195
  0.7491147075140887  0.6667360807104501  0.0620424660148231
  0.8749044791884302  0.5835992696550818  0.3118286583285794
  0.8742970151888017  0.9141575525221128  0.0620309957149203
  0.7498622827435355  0.8331988054062265  0.3116797371407074
  0.7498188983940182  0.6668050261324936  0.5616710550298336
  0.8747708003446206  0.5839726378623737  0.8118051360017304
  0.8749862862593005  0.9159223598937913  0.5615780870726255
  0.7496777320622385  0.8330822618526668  0.8116988488323287
  0.0000000000000000  0.1708970979233797  0.0652813227710567
 
  0.00000000E+00  0.00000000E+00  0.00000000E+00
  0.00000000E+00  0.00000000E+00  0.00000000E+00
  0.00000000E+00  0.00000000E+00  0.00000000E+00
  0.00000000E+00  0.00000000E+00  0.00000000E+00
  0.00000000E+00  0.00000000E+00  0.00000000E+00
  0.00000000E+00  0.00000000E+00  0.00000000E+00
  0.00000000E+00  0.00000000E+00  0.00000000E+00
  0.00000000E+00  0.00000000E+00  0.00000000E+00
  0.00000000E+00  0.00000000E+00  0.00000000E+00
  0.00000000E+00  0.00000000E+00  0.00000000E+00
  0.00000000E+00  0.00000000E+00  0.00000000E+00
  0.00000000E+00  0.00000000E+00  0.00000000E+00
  0.00000000E+00  0.00000000E+00  0.00000000E+00
  0.00000000E+00  0.00000000E+00  0.00000000E+00
  0.00000000E+00  0.00000000E+00  0.00000000E+00
  0.00000000E+00  0.00000000E+00  0.00000000E+00
  0.00000000E+00  0.00000000E+00  0.00000000E+00
  0.00000000E+00  0.00000000E+00  0.00000000E+00
  0.00000000E+00  0.00000000E+00  0.00000000E+00
  0.00000000E+00  0.00000000E+00  0.00000000E+00
  0.00000000E+00  0.00000000E+00  0.00000000E+00
  0.00000000E+00  0.00000000E+00  0.00000000E+00
  0.00000000E+00  0.00000000E+00  0.00000000E+00
  0.00000000E+00  0.00000000E+00  0.00000000E+00
  0.00000000E+00  0.00000000E+00  0.00000000E+00
  0.00000000E+00  0.00000000E+00  0.00000000E+00
  0.00000000E+00  0.00000000E+00  0.00000000E+00
  0.00000000E+00  0.00000000E+00  0.00000000E+00
  0.00000000E+00  0.00000000E+00  0.00000000E+00
  0.00000000E+00  0.00000000E+00  0.00000000E+00
  0.00000000E+00  0.00000000E+00  0.00000000E+00
  0.00000000E+00  0.00000000E+00  0.00000000E+00
  0.00000000E+00  0.00000000E+00  0.00000000E+00
  0.00000000E+00  0.00000000E+00  0.00000000E+00
  0.00000000E+00  0.00000000E+00  0.00000000E+00
  0.00000000E+00  0.00000000E+00  0.00000000E+00
  0.00000000E+00  0.00000000E+00  0.00000000E+00
  0.00000000E+00  0.00000000E+00  0.00000000E+00
  0.00000000E+00  0.00000000E+00  0.00000000E+00
  0.00000000E+00  0.00000000E+00  0.00000000E+00
  0.00000000E+00  0.00000000E+00  0.00000000E+00
  0.00000000E+00  0.00000000E+00  0.00000000E+00
  0.00000000E+00  0.00000000E+00  0.00000000E+00
  0.00000000E+00  0.00000000E+00  0.00000000E+00
  0.00000000E+00  0.00000000E+00  0.00000000E+00
  0.00000000E+00  0.00000000E+00  0.00000000E+00
  0.00000000E+00  0.00000000E+00  0.00000000E+00
  0.00000000E+00  0.00000000E+00  0.00000000E+00
  0.00000000E+00  0.00000000E+00  0.00000000E+00
  0.00000000E+00  0.00000000E+00  0.00000000E+00
  0.00000000E+00  0.00000000E+00  0.00000000E+00
  0.00000000E+00  0.00000000E+00  0.00000000E+00
  0.00000000E+00  0.00000000E+00  0.00000000E+00
  0.00000000E+00  0.00000000E+00  0.00000000E+00
  0.00000000E+00  0.00000000E+00  0.00000000E+00
  0.00000000E+00  0.00000000E+00  0.00000000E+00
  0.00000000E+00  0.00000000E+00  0.00000000E+00
  0.00000000E+00  0.00000000E+00  0.00000000E+00
  0.00000000E+00  0.00000000E+00  0.00000000E+00
  0.00000000E+00  0.00000000E+00  0.00000000E+00
  0.00000000E+00  0.00000000E+00  0.00000000E+00
  0.00000000E+00  0.00000000E+00  0.00000000E+00
  0.00000000E+00  0.00000000E+00  0.00000000E+00
  0.00000000E+00  0.00000000E+00  0.00000000E+00
  0.00000000E+00  0.00000000E+00  0.00000000E+00
  0.00000000E+00  0.00000000E+00  0.00000000E+00
  0.00000000E+00  0.00000000E+00  0.00000000E+00
  0.00000000E+00  0.00000000E+00  0.00000000E+00
  0.00000000E+00  0.00000000E+00  0.00000000E+00
  0.00000000E+00  0.00000000E+00  0.00000000E+00
  0.00000000E+00  0.00000000E+00  0.00000000E+00
  0.00000000E+00  0.00000000E+00  0.00000000E+00
  0.00000000E+00  0.00000000E+00  0.00000000E+00
  0.00000000E+00  0.00000000E+00  0.00000000E+00
  0.00000000E+00  0.00000000E+00  0.00000000E+00
  0.00000000E+00  0.00000000E+00  0.00000000E+00
  0.00000000E+00  0.00000000E+00  0.00000000E+00
  0.00000000E+00  0.00000000E+00  0.00000000E+00
  0.00000000E+00  0.00000000E+00  0.00000000E+00
  0.00000000E+00  0.00000000E+00  0.00000000E+00
  0.00000000E+00  0.00000000E+00  0.00000000E+00
  0.00000000E+00  0.00000000E+00  0.00000000E+00
  0.00000000E+00  0.00000000E+00  0.00000000E+00
  0.00000000E+00  0.00000000E+00  0.00000000E+00
  0.00000000E+00  0.00000000E+00  0.00000000E+00
  0.00000000E+00  0.00000000E+00  0.00000000E+00
  0.00000000E+00  0.00000000E+00  0.00000000E+00
  0.00000000E+00  0.00000000E+00  0.00000000E+00
  0.00000000E+00  0.00000000E+00  0.00000000E+00
  0.00000000E+00  0.00000000E+00  0.00000000E+00
  0.00000000E+00  0.00000000E+00  0.00000000E+00
  0.00000000E+00  0.00000000E+00  0.00000000E+00
  0.00000000E+00  0.00000000E+00  0.00000000E+00
  0.00000000E+00  0.00000000E+00  0.00000000E+00
  0.00000000E+00  0.00000000E+00  0.00000000E+00
  0.00000000E+00  0.00000000E+00  0.00000000E+00
  0.00000000E+00  0.00000000E+00  0.00000000E+00
  0.00000000E+00  0.00000000E+00  0.00000000E+00
  0.00000000E+00  0.00000000E+00  0.00000000E+00
  0.00000000E+00  0.00000000E+00  0.00000000E+00
  0.00000000E+00  0.00000000E+00  0.00000000E+00
  0.00000000E+00  0.00000000E+00  0.00000000E+00
  0.00000000E+00  0.00000000E+00  0.00000000E+00
  0.00000000E+00  0.00000000E+00  0.00000000E+00
  0.00000000E+00  0.00000000E+00  0.00000000E+00
  0.00000000E+00  0.00000000E+00  0.00000000E+00
  0.00000000E+00  0.00000000E+00  0.00000000E+00
  0.00000000E+00  0.00000000E+00  0.00000000E+00
  0.00000000E+00  0.00000000E+00  0.00000000E+00
  0.00000000E+00  0.00000000E+00  0.00000000E+00
  0.00000000E+00  0.00000000E+00  0.00000000E+00
  0.00000000E+00  0.00000000E+00  0.00000000E+00
  0.00000000E+00  0.00000000E+00  0.00000000E+00
  0.00000000E+00  0.00000000E+00  0.00000000E+00
  0.00000000E+00  0.00000000E+00  0.00000000E+00
  0.00000000E+00  0.00000000E+00  0.00000000E+00
  0.00000000E+00  0.00000000E+00  0.00000000E+00
  0.00000000E+00  0.00000000E+00  0.00000000E+00
  0.00000000E+00  0.00000000E+00  0.00000000E+00
  0.00000000E+00  0.00000000E+00  0.00000000E+00
  0.00000000E+00  0.00000000E+00  0.00000000E+00
  0.00000000E+00  0.00000000E+00  0.00000000E+00
  0.00000000E+00  0.00000000E+00  0.00000000E+00
  0.00000000E+00  0.00000000E+00  0.00000000E+00
  0.00000000E+00  0.00000000E+00  0.00000000E+00
  0.00000000E+00  0.00000000E+00  0.00000000E+00
  0.00000000E+00  0.00000000E+00  0.00000000E+00
  0.00000000E+00  0.00000000E+00  0.00000000E+00
