Zn47Ge49P96                             
   1.00000000000000     
    16.4039999999999999    0.0000000000000000    0.0000000000000000
     0.0000000000000000   15.3313769999999998    0.0000000000000000
     0.0000000000000000    0.2701040000000000   15.3289980000000003
   Zn   Ge   P 
    47    49    96
Direct
  0.9982492199915356  0.9993756901054240  0.9974761072155687
  0.1667264543090354  0.6239184115114114  0.3751232023235218
  0.1662971044724699  0.8745117666260498  0.3725260396303938
  0.9999990291431118  0.4996907659031180  0.7503082877939633
  0.0001371595287551  0.5001949180276100  0.4995201967181941
  0.1670688694923683  0.1249748132256983  0.8753057331383545
  0.1667741323072036  0.3751358997805312  0.8753171794659096
  0.9998163427983542  0.2499269074159045  0.5008900365126294
  0.0017438466521256  0.2525124035879500  0.2506277921923115
  0.1663423766679131  0.8753242355607256  0.6242054218454598
  0.1660813858710952  0.1249129096660297  0.6248558047935830
  0.0001826151057784  0.7491127722204993  0.0000699509690207
  0.9998609903491626  0.7504803530873900  0.7498014530498551
  0.1668424096877104  0.3731510932761850  0.1253751383588195
  0.1663816874156723  0.6231009107137666  0.1245728656865595
  0.3342517593260226  0.9989760309397440  0.2501033237423016
  0.3342605285612876  0.9993043713907355  0.9990827976027816
  0.5002263263530651  0.6244608203503574  0.3751263103551778
  0.4999994943466888  0.8748862469911884  0.3751124984943530
  0.3326074344078052  0.5003739988081719  0.7506008719885742
  0.3331391825794583  0.5002942735197777  0.5000189347773158
  0.5001590457733300  0.1248652519554838  0.8748053144239663
  0.4999991033907421  0.3759569508692095  0.8740413192418899
  0.3327601549085060  0.2496211545466238  0.5001462588867724
  0.3334867259053738  0.2498625555612293  0.2496530429863455
  0.4997722053392479  0.8748720138894797  0.6255383097124536
  0.4994066822697718  0.1254759245875618  0.6251069831243896
  0.3363482692894380  0.7460337855743617  0.9982620234174391
  0.3331568343904650  0.7504028060716408  0.7493938044145736
  0.4998387954933889  0.3751939993684488  0.1251320573636931
  0.5005915429659780  0.6248911440291067  0.1245232239603524
  0.6657462612899963  0.9998962894733907  0.2510220914048631
  0.6665105345426809  0.0003454922657085  0.0001348520743250
  0.8336566391338138  0.6257916524596610  0.3746753579786244
  0.8337007888825454  0.8774730464515699  0.3754854036975459
  0.6673912390169079  0.4993980019676485  0.7496261521131942
  0.6668412725579316  0.5006043657687798  0.4995970322318328
  0.8331548171907883  0.1246268641162160  0.8768447077272370
  0.8332248788015946  0.3746836412973309  0.8748639149421180
  0.6636504668966055  0.2517369412440402  0.5039623439098193
  0.6657368677108479  0.2509175426829060  0.2506923153132590
  0.8332710366074352  0.8748754478299077  0.6260780460616573
  0.8336154026142992  0.1254253674344241  0.6268978541411201
  0.6672384901463175  0.7498526064084814  0.0003773464558705
  0.6668588030174689  0.7499795701420666  0.7497043474222949
  0.8329304278096501  0.3746936554358911  0.1250266740993879
  0.8339181154913717  0.6251434877490425  0.1250852720588753
  0.1722764542865463  0.8706524803361404  0.1205921666610550
  0.1689643307544912  0.1236035020762500  0.1234403042132328
  0.9999987883794788  0.7501145200919908  0.4998836070186172
  0.0016869004472042  0.7487059251411665  0.2497796728916271
  0.1664380538905590  0.3752804912003072  0.6252416937297625
  0.1663773095018186  0.6249865675473956  0.6250751508203720
  0.9999986795496127  0.2495827625551641  0.0004193144390996
  0.9998753387274704  0.2497301022797060  0.7509209850454397
  0.1667073119146991  0.1253857057197081  0.3740424806745892
  0.1668591937390929  0.3751119118964326  0.3755084419613510
  0.0013594762055078  0.0001350856565949  0.7512197782149457
  0.9983107648445397  0.0002179304433199  0.5012917338375686
  0.1663930014743258  0.6251778004919544  0.8749694670112547
  0.1675858479103667  0.8744380330447754  0.8750923230632495
  0.9986404391350661  0.4987763481239611  0.2498638130126807
  0.0001235423533501  0.4990805849856343  0.0002689858992397
  0.5001171215702769  0.8749128680238272  0.1248512488970093
  0.4999990710469362  0.1248936172768325  0.1251051925508762
  0.3330101108852688  0.7502250847463401  0.4994787545447252
  0.3339189896532133  0.7488553906386883  0.2500030373141513
  0.4987873299085734  0.3761278176915823  0.6254309745655817
  0.4999992273970051  0.6250594907110525  0.6249389572914197
  0.3344243433581084  0.2500166077709451  0.9992703479241669
  0.3331968214509544  0.2499658394248314  0.7501603382839548
  0.4998813783658633  0.1251484405652974  0.3750854073051642
  0.4995535202523342  0.3749930740132044  0.3753482921130527
  0.3331504548424107  0.0001233430575880  0.7496614324299387
  0.3330222997827832  0.9995936264879788  0.4999028010915225
  0.5012107305725237  0.6245664436702043  0.8738711635649778
  0.5004444048263039  0.8746489390533014  0.8750067282974001
  0.3332210887087399  0.4997890796556703  0.2497720792688156
  0.3332672020035261  0.4992978765999183  0.0000109183181749
  0.8332905952035361  0.8759583373086315  0.1246103774168290
  0.8310337706499809  0.1265580092033858  0.1263958108575451
  0.6669892065253364  0.7505191514235179  0.4997731351330685
  0.6669776998582719  0.7500960466204631  0.2504039682837842
  0.8336045542444381  0.3750281801265061  0.6248223031605704
  0.8336213638218908  0.6249229958840843  0.6250129458096438
  0.6655742307342152  0.2507295948271349  0.9999817020452539
  0.6667295479058595  0.2499883052615530  0.7507002707312225
  0.8277218099149053  0.1294036252863506  0.3793460341290853
  0.8324120210179231  0.3749058456957215  0.3755623624484699
  0.6667763677211767  0.0002262199753886  0.7502091856818183
  0.6660779134984836  0.9999951507047484  0.5011434662601815
  0.8335612718898062  0.6247589939048979  0.8747186286070985
  0.8331384898785927  0.8744920832458263  0.8748832710507060
  0.6668484053515300  0.5003379393398220  0.2498754548456148
  0.6668025229983812  0.4998395678574141  0.0000340433175268
  0.0000047172028346  0.0070392100680863  0.2429520613628782
  0.0820803159511243  0.0009536146556144  0.3776568842502073
  0.2491039166035378  0.1238686533647737  0.2495899888209934
  0.0928722288399797  0.9952624619168802  0.1133748469381715
  0.2509035020483665  0.8729844579461457  0.2475458287572962
  0.2497661686262305  0.6261661201832709  0.5011878877733551
  0.0823765124483344  0.7494902452010734  0.3751631660274342
  0.2504700954948120  0.8752875571884431  0.4985782296337931
  0.0832363472522530  0.7490847320460432  0.6237260417707873
  0.0833250599941948  0.5009741940887551  0.8762656114743450
  0.2481746787757899  0.6254593268154522  0.7500880661796785
  0.0844072288880042  0.5001043218370498  0.6249937729275601
  0.2498234903550056  0.3738593017942051  0.7491180829301456
  0.2514666026485486  0.1257314345901150  0.0002038712862671
  0.0821252198940954  0.2498869206413090  0.8756467814341278
  0.2517272537456492  0.3741771291308993  0.0002541419942119
  0.0837598699480608  0.2464044236050569  0.1242135608432591
  0.0831902151406894  0.2512501483107386  0.6268107378013070
  0.2485867121339069  0.3749876091703470  0.5004282679874947
  0.0848996186844104  0.2499586594489003  0.3758560898915988
  0.2492806268673817  0.1232808980158211  0.4984523197187372
  0.2496845589463348  0.8763840521439477  0.7502548967713523
  0.0813081669388467  0.9999801740381358  0.6250208123314778
  0.2511736176356649  0.1250489451611330  0.7497983336679326
  0.0845374138529635  0.9989236381519575  0.8756078464154911
  0.0842855130760967  0.7502090666750334  0.1253346348613746
  0.2539250523857035  0.8712315235556076  0.9963683708865716
  0.0846713683799294  0.7501725635787082  0.8749391638583788
  0.2500435705619068  0.6230114847596084  0.9987287551412081
  0.2500021635139547  0.3756330428314811  0.2514693179586018
  0.0817274044143446  0.4979601432187906  0.1253088241673836
  0.2511696970070219  0.6245156396022082  0.2498034923258885
  0.0831201685329788  0.4983939173455241  0.3734568274358239
  0.4168123635546692  0.0010090860754133  0.3763883923558069
  0.5817787327507915  0.1252672406922244  0.2501728363224132
  0.4182196466642267  0.9998252030694985  0.1247324919605717
  0.5831866272765183  0.8736102624807032  0.2489896419588860
  0.5835127710449584  0.6265427612447283  0.5010116294897884
  0.4155417141415114  0.7495379199406145  0.3749627020898103
  0.5844563080992344  0.8750346408908314  0.5004611303470625
  0.4164855854144704  0.7489866841068960  0.6234556394633586
  0.4165856323052495  0.5014694578988070  0.8760047103461517
  0.5829531933829699  0.6243779447760360  0.7490276485953018
  0.4170450397209038  0.5009712080190525  0.6256203004606959
  0.5834119476174706  0.3739948074092609  0.7485284229774223
  0.5830275617561469  0.1261444623741994  0.0010726586261924
  0.4161121685657534  0.2503612040353502  0.8742974317837877
  0.5838867942630444  0.3757021952106498  0.9996367869120348
  0.4169711608637812  0.2489261171472137  0.1238546149911102
  0.4161322079718630  0.2514909917313304  0.6261811281057987
  0.5805083155956723  0.3765571642908654  0.5009268345616746
  0.4177309505662379  0.2498146677305968  0.3751230342796816
  0.5827677871181436  0.1239687353586660  0.4992996711713573
  0.5836785708855601  0.8761467511568597  0.7511895508390012
  0.4150013498193559  0.0000684471486068  0.6248238369093144
  0.5848078793575411  0.1250945551259264  0.7498504662996055
  0.4172463858619864  0.9987090440384065  0.8730804248576831
  0.4172303915280651  0.7506989355293712  0.1260305433013400
  0.5822670063098627  0.8748754119082633  0.0001848561464968
  0.4194895400694421  0.7490708858604762  0.8734417093575928
  0.5838659723769837  0.6238177528953344  0.9985081648110494
  0.5827511852961393  0.3769199275200918  0.2512883756891853
  0.4151892665477988  0.5001487555484871  0.1249036733994160
  0.5849973950109444  0.6251758384949397  0.2499297765818937
  0.4163193346743483  0.4988103757097804  0.3738513994202464
  0.7490931245816341  0.0024518829990257  0.3770148802058628
  0.9071295971893178  0.1366049941968939  0.2547368100812477
  0.7508928607472143  0.0004093564737104  0.1261288107474670
  0.9179171944765585  0.8723422803357508  0.2490432853744835
  0.9167623554245594  0.6262711002489567  0.5009147671478615
  0.7495293195169950  0.7514195028586528  0.3747104259038778
  0.9176212535951080  0.8748346400814455  0.5005067954750615
  0.7502320476143964  0.7488100762170689  0.6238323841264517
  0.7501756573626324  0.5008824979307889  0.8761404298029518
  0.9155917776641402  0.6250057553517578  0.7498942278157870
  0.7518235816094503  0.4999099766382571  0.6245405650347280
  0.9166734054482220  0.3737329584597262  0.7490253573350785
  0.9162358962173585  0.1257895349920375  0.0035927674915115
  0.7482703934648711  0.2497471411652441  0.8758203303065528
  0.9178727999060996  0.3743550429520113  0.0001135132684595
  0.7485319980015603  0.2497952532155381  0.1242670595563169
  0.7499533525733781  0.2512694985540378  0.6269870376416264
  0.9153267334182615  0.3750574834067919  0.4998287158938410
  0.7460741760705289  0.2536296913413167  0.3787647475869136
  0.9157124815500950  0.1246624667393235  0.4997901131729989
  0.9168782213900570  0.8765434675396619  0.7516021709816485
  0.7488271501976342  0.0001947983332897  0.6254830278396994
  0.9182717825299918  0.1246904310389780  0.7520372274845286
  0.7499957226811134  0.9985314715736138  0.8743646796003048
  0.7507191620936098  0.7515470654539342  0.1267166345008732
  0.9150977135872225  0.8741450488443334  0.0000367263619339
  0.7514118730353729  0.7495717787265335  0.8750105378408222
  0.9168094153133879  0.6231912150158081  0.9987485848064068
  0.9154612724352589  0.3743883572546594  0.2510775313462901
  0.7488255959313577  0.5002011086207503  0.1249507672405272
  0.9186906613739012  0.6249761646426180  0.2500187470392774
  0.7503135100417708  0.4997434227652136  0.3736157930997592
 
  0.00000000E+00  0.00000000E+00  0.00000000E+00
  0.00000000E+00  0.00000000E+00  0.00000000E+00
  0.00000000E+00  0.00000000E+00  0.00000000E+00
  0.00000000E+00  0.00000000E+00  0.00000000E+00
  0.00000000E+00  0.00000000E+00  0.00000000E+00
  0.00000000E+00  0.00000000E+00  0.00000000E+00
  0.00000000E+00  0.00000000E+00  0.00000000E+00
  0.00000000E+00  0.00000000E+00  0.00000000E+00
  0.00000000E+00  0.00000000E+00  0.00000000E+00
  0.00000000E+00  0.00000000E+00  0.00000000E+00
  0.00000000E+00  0.00000000E+00  0.00000000E+00
  0.00000000E+00  0.00000000E+00  0.00000000E+00
  0.00000000E+00  0.00000000E+00  0.00000000E+00
  0.00000000E+00  0.00000000E+00  0.00000000E+00
  0.00000000E+00  0.00000000E+00  0.00000000E+00
  0.00000000E+00  0.00000000E+00  0.00000000E+00
  0.00000000E+00  0.00000000E+00  0.00000000E+00
  0.00000000E+00  0.00000000E+00  0.00000000E+00
  0.00000000E+00  0.00000000E+00  0.00000000E+00
  0.00000000E+00  0.00000000E+00  0.00000000E+00
  0.00000000E+00  0.00000000E+00  0.00000000E+00
  0.00000000E+00  0.00000000E+00  0.00000000E+00
  0.00000000E+00  0.00000000E+00  0.00000000E+00
  0.00000000E+00  0.00000000E+00  0.00000000E+00
  0.00000000E+00  0.00000000E+00  0.00000000E+00
  0.00000000E+00  0.00000000E+00  0.00000000E+00
  0.00000000E+00  0.00000000E+00  0.00000000E+00
  0.00000000E+00  0.00000000E+00  0.00000000E+00
  0.00000000E+00  0.00000000E+00  0.00000000E+00
  0.00000000E+00  0.00000000E+00  0.00000000E+00
  0.00000000E+00  0.00000000E+00  0.00000000E+00
  0.00000000E+00  0.00000000E+00  0.00000000E+00
  0.00000000E+00  0.00000000E+00  0.00000000E+00
  0.00000000E+00  0.00000000E+00  0.00000000E+00
  0.00000000E+00  0.00000000E+00  0.00000000E+00
  0.00000000E+00  0.00000000E+00  0.00000000E+00
  0.00000000E+00  0.00000000E+00  0.00000000E+00
  0.00000000E+00  0.00000000E+00  0.00000000E+00
  0.00000000E+00  0.00000000E+00  0.00000000E+00
  0.00000000E+00  0.00000000E+00  0.00000000E+00
  0.00000000E+00  0.00000000E+00  0.00000000E+00
  0.00000000E+00  0.00000000E+00  0.00000000E+00
  0.00000000E+00  0.00000000E+00  0.00000000E+00
  0.00000000E+00  0.00000000E+00  0.00000000E+00
  0.00000000E+00  0.00000000E+00  0.00000000E+00
  0.00000000E+00  0.00000000E+00  0.00000000E+00
  0.00000000E+00  0.00000000E+00  0.00000000E+00
  0.00000000E+00  0.00000000E+00  0.00000000E+00
  0.00000000E+00  0.00000000E+00  0.00000000E+00
  0.00000000E+00  0.00000000E+00  0.00000000E+00
  0.00000000E+00  0.00000000E+00  0.00000000E+00
  0.00000000E+00  0.00000000E+00  0.00000000E+00
  0.00000000E+00  0.00000000E+00  0.00000000E+00
  0.00000000E+00  0.00000000E+00  0.00000000E+00
  0.00000000E+00  0.00000000E+00  0.00000000E+00
  0.00000000E+00  0.00000000E+00  0.00000000E+00
  0.00000000E+00  0.00000000E+00  0.00000000E+00
  0.00000000E+00  0.00000000E+00  0.00000000E+00
  0.00000000E+00  0.00000000E+00  0.00000000E+00
  0.00000000E+00  0.00000000E+00  0.00000000E+00
  0.00000000E+00  0.00000000E+00  0.00000000E+00
  0.00000000E+00  0.00000000E+00  0.00000000E+00
  0.00000000E+00  0.00000000E+00  0.00000000E+00
  0.00000000E+00  0.00000000E+00  0.00000000E+00
  0.00000000E+00  0.00000000E+00  0.00000000E+00
  0.00000000E+00  0.00000000E+00  0.00000000E+00
  0.00000000E+00  0.00000000E+00  0.00000000E+00
  0.00000000E+00  0.00000000E+00  0.00000000E+00
  0.00000000E+00  0.00000000E+00  0.00000000E+00
  0.00000000E+00  0.00000000E+00  0.00000000E+00
  0.00000000E+00  0.00000000E+00  0.00000000E+00
  0.00000000E+00  0.00000000E+00  0.00000000E+00
  0.00000000E+00  0.00000000E+00  0.00000000E+00
  0.00000000E+00  0.00000000E+00  0.00000000E+00
  0.00000000E+00  0.00000000E+00  0.00000000E+00
  0.00000000E+00  0.00000000E+00  0.00000000E+00
  0.00000000E+00  0.00000000E+00  0.00000000E+00
  0.00000000E+00  0.00000000E+00  0.00000000E+00
  0.00000000E+00  0.00000000E+00  0.00000000E+00
  0.00000000E+00  0.00000000E+00  0.00000000E+00
  0.00000000E+00  0.00000000E+00  0.00000000E+00
  0.00000000E+00  0.00000000E+00  0.00000000E+00
  0.00000000E+00  0.00000000E+00  0.00000000E+00
  0.00000000E+00  0.00000000E+00  0.00000000E+00
  0.00000000E+00  0.00000000E+00  0.00000000E+00
  0.00000000E+00  0.00000000E+00  0.00000000E+00
  0.00000000E+00  0.00000000E+00  0.00000000E+00
  0.00000000E+00  0.00000000E+00  0.00000000E+00
  0.00000000E+00  0.00000000E+00  0.00000000E+00
  0.00000000E+00  0.00000000E+00  0.00000000E+00
  0.00000000E+00  0.00000000E+00  0.00000000E+00
  0.00000000E+00  0.00000000E+00  0.00000000E+00
  0.00000000E+00  0.00000000E+00  0.00000000E+00
  0.00000000E+00  0.00000000E+00  0.00000000E+00
  0.00000000E+00  0.00000000E+00  0.00000000E+00
  0.00000000E+00  0.00000000E+00  0.00000000E+00
  0.00000000E+00  0.00000000E+00  0.00000000E+00
  0.00000000E+00  0.00000000E+00  0.00000000E+00
  0.00000000E+00  0.00000000E+00  0.00000000E+00
  0.00000000E+00  0.00000000E+00  0.00000000E+00
  0.00000000E+00  0.00000000E+00  0.00000000E+00
  0.00000000E+00  0.00000000E+00  0.00000000E+00
  0.00000000E+00  0.00000000E+00  0.00000000E+00
  0.00000000E+00  0.00000000E+00  0.00000000E+00
  0.00000000E+00  0.00000000E+00  0.00000000E+00
  0.00000000E+00  0.00000000E+00  0.00000000E+00
  0.00000000E+00  0.00000000E+00  0.00000000E+00
  0.00000000E+00  0.00000000E+00  0.00000000E+00
  0.00000000E+00  0.00000000E+00  0.00000000E+00
  0.00000000E+00  0.00000000E+00  0.00000000E+00
  0.00000000E+00  0.00000000E+00  0.00000000E+00
  0.00000000E+00  0.00000000E+00  0.00000000E+00
  0.00000000E+00  0.00000000E+00  0.00000000E+00
  0.00000000E+00  0.00000000E+00  0.00000000E+00
  0.00000000E+00  0.00000000E+00  0.00000000E+00
  0.00000000E+00  0.00000000E+00  0.00000000E+00
  0.00000000E+00  0.00000000E+00  0.00000000E+00
  0.00000000E+00  0.00000000E+00  0.00000000E+00
  0.00000000E+00  0.00000000E+00  0.00000000E+00
  0.00000000E+00  0.00000000E+00  0.00000000E+00
  0.00000000E+00  0.00000000E+00  0.00000000E+00
  0.00000000E+00  0.00000000E+00  0.00000000E+00
  0.00000000E+00  0.00000000E+00  0.00000000E+00
  0.00000000E+00  0.00000000E+00  0.00000000E+00
  0.00000000E+00  0.00000000E+00  0.00000000E+00
  0.00000000E+00  0.00000000E+00  0.00000000E+00
  0.00000000E+00  0.00000000E+00  0.00000000E+00
  0.00000000E+00  0.00000000E+00  0.00000000E+00
  0.00000000E+00  0.00000000E+00  0.00000000E+00
  0.00000000E+00  0.00000000E+00  0.00000000E+00
  0.00000000E+00  0.00000000E+00  0.00000000E+00
  0.00000000E+00  0.00000000E+00  0.00000000E+00
  0.00000000E+00  0.00000000E+00  0.00000000E+00
  0.00000000E+00  0.00000000E+00  0.00000000E+00
  0.00000000E+00  0.00000000E+00  0.00000000E+00
  0.00000000E+00  0.00000000E+00  0.00000000E+00
  0.00000000E+00  0.00000000E+00  0.00000000E+00
  0.00000000E+00  0.00000000E+00  0.00000000E+00
  0.00000000E+00  0.00000000E+00  0.00000000E+00
  0.00000000E+00  0.00000000E+00  0.00000000E+00
  0.00000000E+00  0.00000000E+00  0.00000000E+00
  0.00000000E+00  0.00000000E+00  0.00000000E+00
  0.00000000E+00  0.00000000E+00  0.00000000E+00
  0.00000000E+00  0.00000000E+00  0.00000000E+00
  0.00000000E+00  0.00000000E+00  0.00000000E+00
  0.00000000E+00  0.00000000E+00  0.00000000E+00
  0.00000000E+00  0.00000000E+00  0.00000000E+00
  0.00000000E+00  0.00000000E+00  0.00000000E+00
  0.00000000E+00  0.00000000E+00  0.00000000E+00
  0.00000000E+00  0.00000000E+00  0.00000000E+00
  0.00000000E+00  0.00000000E+00  0.00000000E+00
  0.00000000E+00  0.00000000E+00  0.00000000E+00
  0.00000000E+00  0.00000000E+00  0.00000000E+00
  0.00000000E+00  0.00000000E+00  0.00000000E+00
  0.00000000E+00  0.00000000E+00  0.00000000E+00
  0.00000000E+00  0.00000000E+00  0.00000000E+00
  0.00000000E+00  0.00000000E+00  0.00000000E+00
  0.00000000E+00  0.00000000E+00  0.00000000E+00
  0.00000000E+00  0.00000000E+00  0.00000000E+00
  0.00000000E+00  0.00000000E+00  0.00000000E+00
  0.00000000E+00  0.00000000E+00  0.00000000E+00
  0.00000000E+00  0.00000000E+00  0.00000000E+00
  0.00000000E+00  0.00000000E+00  0.00000000E+00
  0.00000000E+00  0.00000000E+00  0.00000000E+00
  0.00000000E+00  0.00000000E+00  0.00000000E+00
  0.00000000E+00  0.00000000E+00  0.00000000E+00
  0.00000000E+00  0.00000000E+00  0.00000000E+00
  0.00000000E+00  0.00000000E+00  0.00000000E+00
  0.00000000E+00  0.00000000E+00  0.00000000E+00
  0.00000000E+00  0.00000000E+00  0.00000000E+00
  0.00000000E+00  0.00000000E+00  0.00000000E+00
  0.00000000E+00  0.00000000E+00  0.00000000E+00
  0.00000000E+00  0.00000000E+00  0.00000000E+00
  0.00000000E+00  0.00000000E+00  0.00000000E+00
  0.00000000E+00  0.00000000E+00  0.00000000E+00
  0.00000000E+00  0.00000000E+00  0.00000000E+00
  0.00000000E+00  0.00000000E+00  0.00000000E+00
  0.00000000E+00  0.00000000E+00  0.00000000E+00
  0.00000000E+00  0.00000000E+00  0.00000000E+00
  0.00000000E+00  0.00000000E+00  0.00000000E+00
  0.00000000E+00  0.00000000E+00  0.00000000E+00
  0.00000000E+00  0.00000000E+00  0.00000000E+00
  0.00000000E+00  0.00000000E+00  0.00000000E+00
  0.00000000E+00  0.00000000E+00  0.00000000E+00
  0.00000000E+00  0.00000000E+00  0.00000000E+00
  0.00000000E+00  0.00000000E+00  0.00000000E+00
  0.00000000E+00  0.00000000E+00  0.00000000E+00
  0.00000000E+00  0.00000000E+00  0.00000000E+00
  0.00000000E+00  0.00000000E+00  0.00000000E+00
  0.00000000E+00  0.00000000E+00  0.00000000E+00
  0.00000000E+00  0.00000000E+00  0.00000000E+00
  0.00000000E+00  0.00000000E+00  0.00000000E+00
