Zn47Ge49P96                             
   1.00000000000000     
    16.4039999999999999    0.0000000000000000    0.0000000000000000
     0.0000000000000000   15.3313769999999998    0.0000000000000000
     0.0000000000000000    0.2701040000000000   15.3289980000000003
   Zn   Ge   P 
    47    49    96
Direct
 -0.0017507800084616 -0.0006243098945747 -0.0025238927844278
  0.1667264543090343  0.6239184115114103  0.3751232023235223
  0.1662971044724668  0.8745117666260495  0.3725260396303968
 -0.0000009708568912  0.4996907659031158  0.7503082877939661
  0.0001371595287554  0.5001949180276113  0.4995201967181910
  0.1670688694923718  0.1249748132257004  0.8753057331383542
  0.1667741323072053  0.3751358997805285  0.8753171794659100
 -0.0001836572016425  0.2499269074159021  0.5008900365126323
  0.0017438466521233  0.2525124035879532  0.2506277921923131
  0.1663423766679113  0.8753242355607268  0.6242054218454632
  0.1660813858710956  0.1249129096660286  0.6248558047935836
  0.0001826151057779  0.7491127722205009  0.0000699509690210
 -0.0001390096508378  0.7504803530873866  0.7498014530498578
  0.1668424096877135  0.3731510932761848  0.1253751383588166
  0.1663816874156697  0.6231009107137665  0.1245728656865625
  0.3342517593260221  0.9989760309397417  0.2501033237423047
  0.3342605285612876 -0.0006956286092633  0.9990827976027814
  0.5002263263530656  0.6244608203503553  0.3751263103551763
  0.4999994943466922  0.8748862469911900  0.3751124984943540
  0.3326074344078025  0.5003739988081700  0.7506008719885748
  0.3331391825794610  0.5002942735197745  0.5000189347773136
  0.5001590457733294  0.1248652519554865  0.8748053144239685
  0.4999991033907437  0.3759569508692118  0.8740413192418892
  0.3327601549085052  0.2496211545466273  0.5001462588867693
  0.3334867259053753  0.2498625555612299  0.2496530429863479
  0.4997722053392473  0.8748720138894780  0.6255383097124523
  0.4994066822697686  0.1254759245875587  0.6251069831243872
  0.3363482692894353  0.7460337855743602 -0.0017379765825626
  0.3331568343904627  0.7504028060716439  0.7493938044145702
  0.4998387954933919  0.3751939993684466  0.1251320573636958
  0.5005915429659785  0.6248911440291041  0.1245232239603502
  0.6657462612899989  0.9998962894733896  0.2510220914048660
  0.6665105345426841  0.0003454922657065  0.0001348520743237
  0.8336566391338172  0.6257916524596622  0.3746753579786222
  0.8337007888825458  0.8774730464515731  0.3754854036975468
  0.6673912390169094  0.4993980019676467  0.7496261521131954
  0.6668412725579335  0.5006043657687825  0.4995970322318303
  0.8331548171907897  0.1246268641162192  0.8768447077272392
  0.8332248788015938  0.3746836412973274  0.8748639149421152
  0.6636504668966040  0.2517369412440418  0.5039623439098206
  0.6657368677108488  0.2509175426829049  0.2506923153132599
  0.8332710366074330  0.8748754478299080  0.6260780460616575
  0.8336154026143006  0.1254253674344243  0.6268978541411205
  0.6672384901463191  0.7498526064084825  0.0003773464558686
  0.6668588030174701  0.7499795701420695  0.7497043474222954
  0.8329304278096535  0.3746936554358926  0.1250266740993886
  0.8339181154913724  0.6251434877490422  0.1250852720588756
  0.1722764542865490  0.8706524803361392  0.1205921666610579
  0.1689643307544936  0.1236035020762495  0.1234403042132338
 -0.0000012116205186  0.7501145200919900  0.4998836070186195
  0.0016869004472021  0.7487059251411671  0.2497796728916296
  0.1664380538905573  0.3752804912003044  0.6252416937297630
  0.1663773095018208  0.6249865675473990  0.6250751508203747
 -0.0000013204503860  0.2495827625551674  0.0004193144390969
 -0.0001246612725331  0.2497301022797086  0.7509209850454396
  0.1667073119146988  0.1253857057197094  0.3740424806745928
  0.1668591937390941  0.3751119118964323  0.3755084419613545
  0.0013594762055104  0.0001350856565944  0.7512197782149428
 -0.0016892351554621  0.0002179304433171  0.5012917338375678
  0.1663930014743252  0.6251778004919509  0.8749694670112553
  0.1675858479103638  0.8744380330447732  0.8750923230632510
 -0.0013595608649369  0.4987763481239608  0.2498638130126800
  0.0001235423533511  0.4990805849856331  0.0002689858992379
  0.5001171215702739  0.8749128680238288  0.1248512488970069
  0.4999990710469385  0.1248936172768335  0.1251051925508785
  0.3330101108852698  0.7502250847463419  0.4994787545447270
  0.3339189896532115  0.7488553906386851  0.2500030373141526
  0.4987873299085747  0.3761278176915802  0.6254309745655806
  0.4999992273970039  0.6250594907110542  0.6249389572914165
  0.3344243433581099  0.2500166077709471  0.9992703479241692
  0.3331968214509521  0.2499658394248326  0.7501603382839566
  0.4998813783658608  0.1251484405653003  0.3750854073051610
  0.4995535202523371  0.3749930740132066  0.3753482921130518
  0.3331504548424076  0.0001233430575893  0.7496614324299379
  0.3330222997827840  0.9995936264879818  0.4999028010915214
  0.5012107305725219  0.6245664436702073  0.8738711635649811
  0.5004444048263018  0.8746489390533008  0.8750067282974018
  0.3332210887087378  0.4997890796556709  0.2497720792688135
  0.3332672020035231  0.4992978765999199  0.0000109183181722
  0.8332905952035348  0.8759583373086315  0.1246103774168302
  0.8310337706499814  0.1265580092033882  0.1263958108575445
  0.6669892065253364  0.7505191514235202  0.4997731351330654
  0.6669776998582717  0.7500960466204627  0.2504039682837851
  0.8336045542444399  0.3750281801265071  0.6248223031605679
  0.8336213638218932  0.6249229958840860  0.6250129458096447
  0.6655742307342163  0.2507295948271356 -0.0000182979547471
  0.6667295479058596  0.2499883052615523  0.7507002707312197
  0.8277218099149054  0.1294036252863523  0.3793460341290833
  0.8324120210179242  0.3749058456957185  0.3755623624484712
  0.6667763677211755  0.0002262199753918  0.7502091856818187
  0.6660779134984838  0.9999951507047502  0.5011434662601847
  0.8335612718898092  0.6247589939049001  0.8747186286070963
  0.8331384898785956  0.8744920832458258  0.8748832710507035
  0.6668484053515308  0.5003379393398200  0.2498754548456127
  0.6668025229983797  0.4998395678574122  0.0000340433175272
  0.0000047172028377  0.0070392100680879  0.2429520613628795
  0.0820803159511236  0.0009536146556125  0.3776568842502074
  0.2491039166035358  0.1238686533647734  0.2495899888209957
  0.0928722288399789  0.9952624619168819  0.1133748469381728
  0.2509035020483668  0.8729844579461491  0.2475458287572994
  0.2497661686262328  0.6261661201832687  0.5011878877733574
  0.0823765124483339  0.7494902452010755  0.3751631660274355
  0.2504700954948123  0.8752875571884401  0.4985782296337936
  0.0832363472522564  0.7490847320460442  0.6237260417707872
  0.0833250599941970  0.5009741940887553  0.8762656114743469
  0.2481746787757923  0.6254593268154545  0.7500880661796773
  0.0844072288880052  0.5001043218370496  0.6249937729275633
  0.2498234903550025  0.3738593017942050  0.7491180829301436
  0.2514666026485492  0.1257314345901176  0.0002038712862658
  0.0821252198940951  0.2498869206413062  0.8756467814341282
  0.2517272537456492  0.3741771291308958  0.0002541419942133
  0.0837598699480584  0.2464044236050582  0.1242135608432624
  0.0831902151406923  0.2512501483107383  0.6268107378013064
  0.2485867121339044  0.3749876091703485  0.5004282679874973
  0.0848996186844076  0.2499586594488973  0.3758560898916018
  0.2492806268673783  0.1232808980158192  0.4984523197187367
  0.2496845589463318  0.8763840521439488  0.7502548967713524
  0.0813081669388478 -0.0000198259618608  0.6250208123314768
  0.2511736176356631  0.1250489451611296  0.7497983336679349
  0.0845374138529650  0.9989236381519554  0.8756078464154896
  0.0842855130760982  0.7502090666750347  0.1253346348613730
  0.2539250523857031  0.8712315235556077 -0.0036316291134298
  0.0846713683799311  0.7501725635787093  0.8749391638583784
  0.2500435705619066  0.6230114847596053  0.9987287551412067
  0.2500021635139553  0.3756330428314816  0.2514693179586043
  0.0817274044143445  0.4979601432187915  0.1253088241673806
  0.2511696970070237  0.6245156396022051  0.2498034923258855
  0.0831201685329775  0.4983939173455264  0.3734568274358241
  0.4168123635546670  0.0010090860754102  0.3763883923558097
  0.5817787327507885  0.1252672406922246  0.2501728363224166
  0.4182196466642279 -0.0001747969304982  0.1247324919605744
  0.5831866272765203  0.8736102624807018  0.2489896419588847
  0.5835127710449562  0.6265427612447269  0.5010116294897853
  0.4155417141415126  0.7495379199406136  0.3749627020898073
  0.5844563080992348  0.8750346408908343  0.5004611303470639
  0.4164855854144675  0.7489866841068952  0.6234556394633585
  0.4165856323052526  0.5014694578988078  0.8760047103461535
  0.5829531933829680  0.6243779447760389  0.7490276485953006
  0.4170450397209026  0.5009712080190541  0.6256203004606973
  0.5834119476174739  0.3739948074092620  0.7485284229774195
  0.5830275617561452  0.1261444623741999  0.0010726586261953
  0.4161121685657566  0.2503612040353494  0.8742974317837896
  0.5838867942630416  0.3757021952106473  0.9996367869120327
  0.4169711608637815  0.2489261171472108  0.1238546149911110
  0.4161322079718634  0.2514909917313269  0.6261811281058011
  0.5805083155956753  0.3765571642908633  0.5009268345616773
  0.4177309505662413  0.2498146677305939  0.3751230342796812
  0.5827677871181428  0.1239687353586692  0.4992996711713567
  0.5836785708855591  0.8761467511568591  0.7511895508390030
  0.4150013498193539  0.0000684471486074  0.6248238369093153
  0.5848078793575427  0.1250945551259296  0.7498504662996076
  0.4172463858619865  0.9987090440384050  0.8730804248576820
  0.4172303915280628  0.7506989355293699  0.1260305433013373
  0.5822670063098638  0.8748754119082655  0.0001848561464965
  0.4194895400694420  0.7490708858604743  0.8734417093575961
  0.5838659723769805  0.6238177528953348  0.9985081648110494
  0.5827511852961424  0.3769199275200905  0.2512883756891884
  0.4151892665478001  0.5001487555484837  0.1249036733994155
  0.5849973950109421  0.6251758384949400  0.2499297765818964
  0.4163193346743508  0.4988103757097792  0.3738513994202499
  0.7490931245816331  0.0024518829990241  0.3770148802058629
  0.9071295971893203  0.1366049941968966  0.2547368100812473
  0.7508928607472166  0.0004093564737117  0.1261288107474640
  0.9179171944765590  0.8723422803357532  0.2490432853744852
  0.9167623554245585  0.6262711002489573  0.5009147671478639
  0.7495293195169932  0.7514195028586558  0.3747104259038795
  0.9176212535951096  0.8748346400814453  0.5005067954750592
  0.7502320476143945  0.7488100762170662  0.6238323841264490
  0.7501756573626318  0.5008824979307868  0.8761404298029491
  0.9155917776641412  0.6250057553517561  0.7498942278157835
  0.7518235816094493  0.4999099766382586  0.6245405650347284
  0.9166734054482223  0.3737329584597288  0.7490253573350750
  0.9162358962173603  0.1257895349920372  0.0035927674915119
  0.7482703934648705  0.2497471411652414  0.8758203303065546
  0.9178727999060985  0.3743550429520084  0.0001135132684579
  0.7485319980015591  0.2497952532155371  0.1242670595563189
  0.7499533525733794  0.2512694985540412  0.6269870376416279
  0.9153267334182598  0.3750574834067915  0.4998287158938437
  0.7460741760705296  0.2536296913413185  0.3787647475869135
  0.9157124815500968  0.1246624667393245  0.4997901131729960
  0.9168782213900547  0.8765434675396655  0.7516021709816498
  0.7488271501976353  0.0001947983332887  0.6254830278396988
  0.9182717825299883  0.1246904310389810  0.7520372274845307
  0.7499957226811111  0.9985314715736140  0.8743646796003020
  0.7507191620936083  0.7515470654539341  0.1267166345008721
  0.9150977135872206  0.8741450488443353  0.0000367263619314
  0.7514118730353723  0.7495717787265307  0.8750105378408244
  0.9168094153133867  0.6231912150158048  0.9987485848064045
  0.9154612724352565  0.3743883572546573  0.2510775313462871
  0.7488255959313584  0.5002011086207528  0.1249507672405292
  0.9186906613739030  0.6249761646426172  0.2500187470392777
  0.7503135100417684  0.4997434227652119  0.3736157930997613
 
  0.00000000E+00  0.00000000E+00  0.00000000E+00
  0.00000000E+00  0.00000000E+00  0.00000000E+00
  0.00000000E+00  0.00000000E+00  0.00000000E+00
  0.00000000E+00  0.00000000E+00  0.00000000E+00
  0.00000000E+00  0.00000000E+00  0.00000000E+00
  0.00000000E+00  0.00000000E+00  0.00000000E+00
  0.00000000E+00  0.00000000E+00  0.00000000E+00
  0.00000000E+00  0.00000000E+00  0.00000000E+00
  0.00000000E+00  0.00000000E+00  0.00000000E+00
  0.00000000E+00  0.00000000E+00  0.00000000E+00
  0.00000000E+00  0.00000000E+00  0.00000000E+00
  0.00000000E+00  0.00000000E+00  0.00000000E+00
  0.00000000E+00  0.00000000E+00  0.00000000E+00
  0.00000000E+00  0.00000000E+00  0.00000000E+00
  0.00000000E+00  0.00000000E+00  0.00000000E+00
  0.00000000E+00  0.00000000E+00  0.00000000E+00
  0.00000000E+00  0.00000000E+00  0.00000000E+00
  0.00000000E+00  0.00000000E+00  0.00000000E+00
  0.00000000E+00  0.00000000E+00  0.00000000E+00
  0.00000000E+00  0.00000000E+00  0.00000000E+00
  0.00000000E+00  0.00000000E+00  0.00000000E+00
  0.00000000E+00  0.00000000E+00  0.00000000E+00
  0.00000000E+00  0.00000000E+00  0.00000000E+00
  0.00000000E+00  0.00000000E+00  0.00000000E+00
  0.00000000E+00  0.00000000E+00  0.00000000E+00
  0.00000000E+00  0.00000000E+00  0.00000000E+00
  0.00000000E+00  0.00000000E+00  0.00000000E+00
  0.00000000E+00  0.00000000E+00  0.00000000E+00
  0.00000000E+00  0.00000000E+00  0.00000000E+00
  0.00000000E+00  0.00000000E+00  0.00000000E+00
  0.00000000E+00  0.00000000E+00  0.00000000E+00
  0.00000000E+00  0.00000000E+00  0.00000000E+00
  0.00000000E+00  0.00000000E+00  0.00000000E+00
  0.00000000E+00  0.00000000E+00  0.00000000E+00
  0.00000000E+00  0.00000000E+00  0.00000000E+00
  0.00000000E+00  0.00000000E+00  0.00000000E+00
  0.00000000E+00  0.00000000E+00  0.00000000E+00
  0.00000000E+00  0.00000000E+00  0.00000000E+00
  0.00000000E+00  0.00000000E+00  0.00000000E+00
  0.00000000E+00  0.00000000E+00  0.00000000E+00
  0.00000000E+00  0.00000000E+00  0.00000000E+00
  0.00000000E+00  0.00000000E+00  0.00000000E+00
  0.00000000E+00  0.00000000E+00  0.00000000E+00
  0.00000000E+00  0.00000000E+00  0.00000000E+00
  0.00000000E+00  0.00000000E+00  0.00000000E+00
  0.00000000E+00  0.00000000E+00  0.00000000E+00
  0.00000000E+00  0.00000000E+00  0.00000000E+00
  0.00000000E+00  0.00000000E+00  0.00000000E+00
  0.00000000E+00  0.00000000E+00  0.00000000E+00
  0.00000000E+00  0.00000000E+00  0.00000000E+00
  0.00000000E+00  0.00000000E+00  0.00000000E+00
  0.00000000E+00  0.00000000E+00  0.00000000E+00
  0.00000000E+00  0.00000000E+00  0.00000000E+00
  0.00000000E+00  0.00000000E+00  0.00000000E+00
  0.00000000E+00  0.00000000E+00  0.00000000E+00
  0.00000000E+00  0.00000000E+00  0.00000000E+00
  0.00000000E+00  0.00000000E+00  0.00000000E+00
  0.00000000E+00  0.00000000E+00  0.00000000E+00
  0.00000000E+00  0.00000000E+00  0.00000000E+00
  0.00000000E+00  0.00000000E+00  0.00000000E+00
  0.00000000E+00  0.00000000E+00  0.00000000E+00
  0.00000000E+00  0.00000000E+00  0.00000000E+00
  0.00000000E+00  0.00000000E+00  0.00000000E+00
  0.00000000E+00  0.00000000E+00  0.00000000E+00
  0.00000000E+00  0.00000000E+00  0.00000000E+00
  0.00000000E+00  0.00000000E+00  0.00000000E+00
  0.00000000E+00  0.00000000E+00  0.00000000E+00
  0.00000000E+00  0.00000000E+00  0.00000000E+00
  0.00000000E+00  0.00000000E+00  0.00000000E+00
  0.00000000E+00  0.00000000E+00  0.00000000E+00
  0.00000000E+00  0.00000000E+00  0.00000000E+00
  0.00000000E+00  0.00000000E+00  0.00000000E+00
  0.00000000E+00  0.00000000E+00  0.00000000E+00
  0.00000000E+00  0.00000000E+00  0.00000000E+00
  0.00000000E+00  0.00000000E+00  0.00000000E+00
  0.00000000E+00  0.00000000E+00  0.00000000E+00
  0.00000000E+00  0.00000000E+00  0.00000000E+00
  0.00000000E+00  0.00000000E+00  0.00000000E+00
  0.00000000E+00  0.00000000E+00  0.00000000E+00
  0.00000000E+00  0.00000000E+00  0.00000000E+00
  0.00000000E+00  0.00000000E+00  0.00000000E+00
  0.00000000E+00  0.00000000E+00  0.00000000E+00
  0.00000000E+00  0.00000000E+00  0.00000000E+00
  0.00000000E+00  0.00000000E+00  0.00000000E+00
  0.00000000E+00  0.00000000E+00  0.00000000E+00
  0.00000000E+00  0.00000000E+00  0.00000000E+00
  0.00000000E+00  0.00000000E+00  0.00000000E+00
  0.00000000E+00  0.00000000E+00  0.00000000E+00
  0.00000000E+00  0.00000000E+00  0.00000000E+00
  0.00000000E+00  0.00000000E+00  0.00000000E+00
  0.00000000E+00  0.00000000E+00  0.00000000E+00
  0.00000000E+00  0.00000000E+00  0.00000000E+00
  0.00000000E+00  0.00000000E+00  0.00000000E+00
  0.00000000E+00  0.00000000E+00  0.00000000E+00
  0.00000000E+00  0.00000000E+00  0.00000000E+00
  0.00000000E+00  0.00000000E+00  0.00000000E+00
  0.00000000E+00  0.00000000E+00  0.00000000E+00
  0.00000000E+00  0.00000000E+00  0.00000000E+00
  0.00000000E+00  0.00000000E+00  0.00000000E+00
  0.00000000E+00  0.00000000E+00  0.00000000E+00
  0.00000000E+00  0.00000000E+00  0.00000000E+00
  0.00000000E+00  0.00000000E+00  0.00000000E+00
  0.00000000E+00  0.00000000E+00  0.00000000E+00
  0.00000000E+00  0.00000000E+00  0.00000000E+00
  0.00000000E+00  0.00000000E+00  0.00000000E+00
  0.00000000E+00  0.00000000E+00  0.00000000E+00
  0.00000000E+00  0.00000000E+00  0.00000000E+00
  0.00000000E+00  0.00000000E+00  0.00000000E+00
  0.00000000E+00  0.00000000E+00  0.00000000E+00
  0.00000000E+00  0.00000000E+00  0.00000000E+00
  0.00000000E+00  0.00000000E+00  0.00000000E+00
  0.00000000E+00  0.00000000E+00  0.00000000E+00
  0.00000000E+00  0.00000000E+00  0.00000000E+00
  0.00000000E+00  0.00000000E+00  0.00000000E+00
  0.00000000E+00  0.00000000E+00  0.00000000E+00
  0.00000000E+00  0.00000000E+00  0.00000000E+00
  0.00000000E+00  0.00000000E+00  0.00000000E+00
  0.00000000E+00  0.00000000E+00  0.00000000E+00
  0.00000000E+00  0.00000000E+00  0.00000000E+00
  0.00000000E+00  0.00000000E+00  0.00000000E+00
  0.00000000E+00  0.00000000E+00  0.00000000E+00
  0.00000000E+00  0.00000000E+00  0.00000000E+00
  0.00000000E+00  0.00000000E+00  0.00000000E+00
  0.00000000E+00  0.00000000E+00  0.00000000E+00
  0.00000000E+00  0.00000000E+00  0.00000000E+00
  0.00000000E+00  0.00000000E+00  0.00000000E+00
  0.00000000E+00  0.00000000E+00  0.00000000E+00
  0.00000000E+00  0.00000000E+00  0.00000000E+00
  0.00000000E+00  0.00000000E+00  0.00000000E+00
  0.00000000E+00  0.00000000E+00  0.00000000E+00
  0.00000000E+00  0.00000000E+00  0.00000000E+00
  0.00000000E+00  0.00000000E+00  0.00000000E+00
  0.00000000E+00  0.00000000E+00  0.00000000E+00
  0.00000000E+00  0.00000000E+00  0.00000000E+00
  0.00000000E+00  0.00000000E+00  0.00000000E+00
  0.00000000E+00  0.00000000E+00  0.00000000E+00
  0.00000000E+00  0.00000000E+00  0.00000000E+00
  0.00000000E+00  0.00000000E+00  0.00000000E+00
  0.00000000E+00  0.00000000E+00  0.00000000E+00
  0.00000000E+00  0.00000000E+00  0.00000000E+00
  0.00000000E+00  0.00000000E+00  0.00000000E+00
  0.00000000E+00  0.00000000E+00  0.00000000E+00
  0.00000000E+00  0.00000000E+00  0.00000000E+00
  0.00000000E+00  0.00000000E+00  0.00000000E+00
  0.00000000E+00  0.00000000E+00  0.00000000E+00
  0.00000000E+00  0.00000000E+00  0.00000000E+00
  0.00000000E+00  0.00000000E+00  0.00000000E+00
  0.00000000E+00  0.00000000E+00  0.00000000E+00
  0.00000000E+00  0.00000000E+00  0.00000000E+00
  0.00000000E+00  0.00000000E+00  0.00000000E+00
  0.00000000E+00  0.00000000E+00  0.00000000E+00
  0.00000000E+00  0.00000000E+00  0.00000000E+00
  0.00000000E+00  0.00000000E+00  0.00000000E+00
  0.00000000E+00  0.00000000E+00  0.00000000E+00
  0.00000000E+00  0.00000000E+00  0.00000000E+00
  0.00000000E+00  0.00000000E+00  0.00000000E+00
  0.00000000E+00  0.00000000E+00  0.00000000E+00
  0.00000000E+00  0.00000000E+00  0.00000000E+00
  0.00000000E+00  0.00000000E+00  0.00000000E+00
  0.00000000E+00  0.00000000E+00  0.00000000E+00
  0.00000000E+00  0.00000000E+00  0.00000000E+00
  0.00000000E+00  0.00000000E+00  0.00000000E+00
  0.00000000E+00  0.00000000E+00  0.00000000E+00
  0.00000000E+00  0.00000000E+00  0.00000000E+00
  0.00000000E+00  0.00000000E+00  0.00000000E+00
  0.00000000E+00  0.00000000E+00  0.00000000E+00
  0.00000000E+00  0.00000000E+00  0.00000000E+00
  0.00000000E+00  0.00000000E+00  0.00000000E+00
  0.00000000E+00  0.00000000E+00  0.00000000E+00
  0.00000000E+00  0.00000000E+00  0.00000000E+00
  0.00000000E+00  0.00000000E+00  0.00000000E+00
  0.00000000E+00  0.00000000E+00  0.00000000E+00
  0.00000000E+00  0.00000000E+00  0.00000000E+00
  0.00000000E+00  0.00000000E+00  0.00000000E+00
  0.00000000E+00  0.00000000E+00  0.00000000E+00
  0.00000000E+00  0.00000000E+00  0.00000000E+00
  0.00000000E+00  0.00000000E+00  0.00000000E+00
  0.00000000E+00  0.00000000E+00  0.00000000E+00
  0.00000000E+00  0.00000000E+00  0.00000000E+00
  0.00000000E+00  0.00000000E+00  0.00000000E+00
  0.00000000E+00  0.00000000E+00  0.00000000E+00
  0.00000000E+00  0.00000000E+00  0.00000000E+00
  0.00000000E+00  0.00000000E+00  0.00000000E+00
  0.00000000E+00  0.00000000E+00  0.00000000E+00
  0.00000000E+00  0.00000000E+00  0.00000000E+00
  0.00000000E+00  0.00000000E+00  0.00000000E+00
  0.00000000E+00  0.00000000E+00  0.00000000E+00
  0.00000000E+00  0.00000000E+00  0.00000000E+00
  0.00000000E+00  0.00000000E+00  0.00000000E+00
  0.00000000E+00  0.00000000E+00  0.00000000E+00
  0.00000000E+00  0.00000000E+00  0.00000000E+00
  0.00000000E+00  0.00000000E+00  0.00000000E+00
